Si24 N32                                
   1.00000000000000     
     8.4099032843401922    0.0000000000000001    0.0000000000000006
     0.0000000000000015    8.4099032843401922    0.0000000000000006
     0.0000000000000000    0.0000000000000000    8.4099032843401922
   Si   N 
    24    32
Direct
  0.8750000000000000  0.8750000000000000  0.1250000000000000
  0.3750000000000000  0.1250000000000000  0.3750000000000000
  0.6250000000000000  0.8750000000000000  0.3750000000000000
  0.1250000000000000  0.1250000000000000  0.1250000000000000
  0.2500000000000000  0.7500000000000000  0.2500000000000000
 -0.0000000000000000 -0.0000000000000000  0.5000000000000000
  0.8750000000000000  0.3750000000000000  0.6250000000000000
  0.3750000000000000  0.6250000000000000  0.8750000000000000
  0.6250000000000000  0.3750000000000000  0.8750000000000000
  0.1250000000000000  0.6250000000000000  0.6250000000000000
  0.2500000000000000  0.2500000000000000  0.7500000000000000
 -0.0000000000000000  0.5000000000000000 -0.0000000000000000
  0.3750000000000000  0.8750000000000000  0.6250000000000000
  0.8750000000000000  0.1250000000000000  0.8750000000000000
  0.1250000000000000  0.8750000000000000  0.8750000000000000
  0.6250000000000000  0.1250000000000000  0.6250000000000000
  0.7500000000000000  0.7500000000000000  0.7500000000000000
  0.5000000000000000 -0.0000000000000000 -0.0000000000000000
  0.3750000000000000  0.3750000000000000  0.1250000000000000
  0.8750000000000000  0.6250000000000000  0.3750000000000000
  0.1250000000000000  0.3750000000000000  0.3750000000000000
  0.6250000000000000  0.6250000000000000  0.1250000000000000
  0.7500000000000000  0.2500000000000000  0.2500000000000000
  0.5000000000000000  0.5000000000000000  0.5000000000000000
  0.3763476810093672  0.3763476810093672  0.3763476810093672
  0.8736523189906328  0.1263476810093672  0.1263476810093672
  0.6263476810093672  0.1263476810093672  0.3736523189906328
  0.1263476810093672  0.8736523189906328  0.1263476810093672
  0.1236523189906328  0.1236523189906328  0.3763476810093672
  0.1236523189906328  0.3763476810093672  0.1236523189906328
  0.3736523189906328  0.8736523189906328  0.3736523189906328
  0.3763476810093672  0.1236523189906328  0.1236523189906328
  0.3763476810093672  0.8763476810093672  0.8763476810093672
  0.8736523189906328  0.6263476810093672  0.6263476810093672
  0.6263476810093672  0.6263476810093672  0.8736523189906328
  0.1263476810093672  0.3736523189906328  0.6263476810093672
  0.1236523189906328  0.6236523189906328  0.8763476810093672
  0.1236523189906328  0.8763476810093672  0.6236523189906328
  0.3736523189906328  0.3736523189906328  0.8736523189906328
  0.3763476810093672  0.6236523189906328  0.6236523189906328
  0.8763476810093672  0.3763476810093672  0.8763476810093672
  0.3736523189906328  0.1263476810093672  0.6263476810093672
  0.1263476810093672  0.1263476810093672  0.8736523189906328
  0.6263476810093672  0.8736523189906328  0.6263476810093672
  0.6236523189906328  0.1236523189906328  0.8763476810093672
  0.6236523189906328  0.3763476810093672  0.6236523189906328
  0.8736523189906328  0.8736523189906328  0.8736523189906328
  0.8763476810093672  0.1236523189906328  0.6236523189906328
  0.8763476810093672  0.8763476810093672  0.3763476810093672
  0.3736523189906328  0.6263476810093672  0.1263476810093672
  0.1263476810093672  0.6263476810093672  0.3736523189906328
  0.6263476810093672  0.3736523189906328  0.1263476810093672
  0.6236523189906328  0.6236523189906328  0.3763476810093672
  0.6236523189906328  0.8763476810093672  0.1236523189906328
  0.8736523189906328  0.3736523189906328  0.3736523189906328
  0.8763476810093672  0.6236523189906328  0.1236523189906328
 
  0.00000000E+00  0.00000000E+00  0.00000000E+00
  0.00000000E+00  0.00000000E+00  0.00000000E+00
  0.00000000E+00  0.00000000E+00  0.00000000E+00
  0.00000000E+00  0.00000000E+00  0.00000000E+00
  0.00000000E+00  0.00000000E+00  0.00000000E+00
  0.00000000E+00  0.00000000E+00  0.00000000E+00
  0.00000000E+00  0.00000000E+00  0.00000000E+00
  0.00000000E+00  0.00000000E+00  0.00000000E+00
  0.00000000E+00  0.00000000E+00  0.00000000E+00
  0.00000000E+00  0.00000000E+00  0.00000000E+00
  0.00000000E+00  0.00000000E+00  0.00000000E+00
  0.00000000E+00  0.00000000E+00  0.00000000E+00
  0.00000000E+00  0.00000000E+00  0.00000000E+00
  0.00000000E+00  0.00000000E+00  0.00000000E+00
  0.00000000E+00  0.00000000E+00  0.00000000E+00
  0.00000000E+00  0.00000000E+00  0.00000000E+00
  0.00000000E+00  0.00000000E+00  0.00000000E+00
  0.00000000E+00  0.00000000E+00  0.00000000E+00
  0.00000000E+00  0.00000000E+00  0.00000000E+00
  0.00000000E+00  0.00000000E+00  0.00000000E+00
  0.00000000E+00  0.00000000E+00  0.00000000E+00
  0.00000000E+00  0.00000000E+00  0.00000000E+00
  0.00000000E+00  0.00000000E+00  0.00000000E+00
  0.00000000E+00  0.00000000E+00  0.00000000E+00
  0.00000000E+00  0.00000000E+00  0.00000000E+00
  0.00000000E+00  0.00000000E+00  0.00000000E+00
  0.00000000E+00  0.00000000E+00  0.00000000E+00
  0.00000000E+00  0.00000000E+00  0.00000000E+00
  0.00000000E+00  0.00000000E+00  0.00000000E+00
  0.00000000E+00  0.00000000E+00  0.00000000E+00
  0.00000000E+00  0.00000000E+00  0.00000000E+00
  0.00000000E+00  0.00000000E+00  0.00000000E+00
  0.00000000E+00  0.00000000E+00  0.00000000E+00
  0.00000000E+00  0.00000000E+00  0.00000000E+00
  0.00000000E+00  0.00000000E+00  0.00000000E+00
  0.00000000E+00  0.00000000E+00  0.00000000E+00
  0.00000000E+00  0.00000000E+00  0.00000000E+00
  0.00000000E+00  0.00000000E+00  0.00000000E+00
  0.00000000E+00  0.00000000E+00  0.00000000E+00
  0.00000000E+00  0.00000000E+00  0.00000000E+00
  0.00000000E+00  0.00000000E+00  0.00000000E+00
  0.00000000E+00  0.00000000E+00  0.00000000E+00
  0.00000000E+00  0.00000000E+00  0.00000000E+00
  0.00000000E+00  0.00000000E+00  0.00000000E+00
  0.00000000E+00  0.00000000E+00  0.00000000E+00
  0.00000000E+00  0.00000000E+00  0.00000000E+00
  0.00000000E+00  0.00000000E+00  0.00000000E+00
  0.00000000E+00  0.00000000E+00  0.00000000E+00
  0.00000000E+00  0.00000000E+00  0.00000000E+00
  0.00000000E+00  0.00000000E+00  0.00000000E+00
  0.00000000E+00  0.00000000E+00  0.00000000E+00
  0.00000000E+00  0.00000000E+00  0.00000000E+00
  0.00000000E+00  0.00000000E+00  0.00000000E+00
  0.00000000E+00  0.00000000E+00  0.00000000E+00
  0.00000000E+00  0.00000000E+00  0.00000000E+00
  0.00000000E+00  0.00000000E+00  0.00000000E+00
