Si6 N8                                  
   1.00000000000000     
     4.1800792256783144   -7.2401095859876410    0.0000000000000000
     4.1800792148093739    7.2401095922628276    0.0000000000000000
     0.0000000000000000    0.0000000000000000    2.9405192092133552
   Si   N 
     6     8
Direct
  0.1890611050339006  0.8543193727564863  0.7500000000000000
  0.3347417322774141  0.1890611050339006  0.2500000000000000
  0.8543193727564863  0.6652582677225859  0.2500000000000000
  0.1456806272435135  0.3347417322774141  0.7500000000000000
  0.6652582677225859  0.8109388949660994  0.7500000000000000
  0.8109388949660994  0.1456806272435135  0.2500000000000000
  0.3333333333333357  0.6666666666666643  0.7500000000000000
  0.6666666666666643  0.3333333333333357  0.2500000000000000
  0.9678117865922353  0.6430216058599868  0.7500000000000000
  0.3247901807322484  0.9678117865922353  0.2500000000000000
  0.6430216058599868  0.6752098192677514  0.2500000000000000
  0.3569783941400133  0.3247901807322484  0.7500000000000000
  0.0321882134077648  0.3569783941400133  0.2500000000000000
  0.6752098192677514  0.0321882134077648  0.7500000000000000
 
  0.00000000E+00  0.00000000E+00  0.00000000E+00
  0.00000000E+00  0.00000000E+00  0.00000000E+00
  0.00000000E+00  0.00000000E+00  0.00000000E+00
  0.00000000E+00  0.00000000E+00  0.00000000E+00
  0.00000000E+00  0.00000000E+00  0.00000000E+00
  0.00000000E+00  0.00000000E+00  0.00000000E+00
  0.00000000E+00  0.00000000E+00  0.00000000E+00
  0.00000000E+00  0.00000000E+00  0.00000000E+00
  0.00000000E+00  0.00000000E+00  0.00000000E+00
  0.00000000E+00  0.00000000E+00  0.00000000E+00
  0.00000000E+00  0.00000000E+00  0.00000000E+00
  0.00000000E+00  0.00000000E+00  0.00000000E+00
  0.00000000E+00  0.00000000E+00  0.00000000E+00
  0.00000000E+00  0.00000000E+00  0.00000000E+00
