Si6 N8                                  
   1.00000000000000     
     4.1402689473385212   -7.1711561613591872    0.0000000000000000
     4.1402689365730945    7.1711561675746101    0.0000000000000000
     0.0000000000000000    0.0000000000000000    2.9125142643637041
   Si   N 
     6     8
Direct
  0.1898952154966623  0.8511406799445972  0.7500000000000000
  0.3387545355520651  0.1898952154966623  0.2500000000000000
  0.8511406799445972  0.6612454644479345  0.2500000000000000
  0.1488593200554029  0.3387545355520651  0.7500000000000000
  0.6612454644479345  0.8101047845033372  0.7500000000000000
  0.8101047845033372  0.1488593200554029  0.2500000000000000
  0.3333333333333357  0.6666666666666643  0.7500000000000000
  0.6666666666666643  0.3333333333333357  0.2500000000000000
  0.9670685039904450  0.6381041220269567  0.7500000000000000
  0.3289643819634882  0.9670685039904450  0.2500000000000000
  0.6381041220269567  0.6710356180365117  0.2500000000000000
  0.3618958779730436  0.3289643819634882  0.7500000000000000
  0.0329314960095553  0.3618958779730436  0.2500000000000000
  0.6710356180365117  0.0329314960095553  0.7500000000000000
 
  0.00000000E+00  0.00000000E+00  0.00000000E+00
  0.00000000E+00  0.00000000E+00  0.00000000E+00
  0.00000000E+00  0.00000000E+00  0.00000000E+00
  0.00000000E+00  0.00000000E+00  0.00000000E+00
  0.00000000E+00  0.00000000E+00  0.00000000E+00
  0.00000000E+00  0.00000000E+00  0.00000000E+00
  0.00000000E+00  0.00000000E+00  0.00000000E+00
  0.00000000E+00  0.00000000E+00  0.00000000E+00
  0.00000000E+00  0.00000000E+00  0.00000000E+00
  0.00000000E+00  0.00000000E+00  0.00000000E+00
  0.00000000E+00  0.00000000E+00  0.00000000E+00
  0.00000000E+00  0.00000000E+00  0.00000000E+00
  0.00000000E+00  0.00000000E+00  0.00000000E+00
  0.00000000E+00  0.00000000E+00  0.00000000E+00
