Si6 N8
1.0
   4.1402689473385212   -7.1711561613591872    0.0000000000000000
   4.1402689365730945    7.1711561675746101    0.0000000000000000
   0.0000000000000000    0.0000000000000000    2.9125142643637041
Si N
6 8
direct
   0.1970895926402061    0.8315177026770055    0.7500000000000000 Si
   0.3655718899632006    0.1970895926402061    0.2500000000000000 Si
   0.8315177026770055    0.6344281100367993    0.2500000000000000 Si
   0.1684822973229944    0.3655718899632006    0.7500000000000000 Si
   0.6344281100367993    0.8029104073597938    0.7500000000000000 Si
   0.8029104073597938    0.1684822973229944    0.2500000000000000 Si
   0.3333333333333357    0.6666666666666643    0.7500000000000000 N
   0.6666666666666643    0.3333333333333357    0.2500000000000000 N
   0.9635875410411820    0.6124634499349597    0.7500000000000000 N
   0.3511240911062220    0.9635875410411820    0.2500000000000000 N
   0.6124634499349597    0.6488759088937781    0.2500000000000000 N
   0.3875365500650402    0.3511240911062220    0.7500000000000000 N
   0.0364124589588182    0.3875365500650402    0.2500000000000000 N
   0.6488759088937781    0.0364124589588182    0.7500000000000000 N
