Si24 N32                                
   1.00000000000000     
     8.9195943924820238    0.0000000000000001    0.0000000000000006
     0.0000000000000016    8.9195943924820238    0.0000000000000006
     0.0000000000000000    0.0000000000000000    8.9195943924820238
   Si   N 
    24    32
Direct
  0.8750000000000000  0.8750000000000000  0.1250000000000000
  0.3750000000000000  0.1250000000000000  0.3750000000000000
  0.6250000000000000  0.8750000000000000  0.3750000000000000
  0.1250000000000000  0.1250000000000000  0.1250000000000000
  0.2500000000000000  0.7500000000000000  0.2500000000000000
  0.0000000000000000 -0.0000000000000000  0.5000000000000000
  0.8750000000000000  0.3750000000000000  0.6250000000000000
  0.3750000000000000  0.6250000000000000  0.8750000000000000
  0.6250000000000000  0.3750000000000000  0.8750000000000000
  0.1250000000000000  0.6250000000000000  0.6250000000000000
  0.2500000000000000  0.2500000000000000  0.7500000000000000
  0.0000000000000000  0.5000000000000000 -0.0000000000000000
  0.3750000000000000  0.8750000000000000  0.6250000000000000
  0.8750000000000000  0.1250000000000000  0.8750000000000000
  0.1250000000000000  0.8750000000000000  0.8750000000000000
  0.6250000000000000  0.1250000000000000  0.6250000000000000
  0.7500000000000000  0.7500000000000000  0.7500000000000000
  0.5000000000000000 -0.0000000000000000 -0.0000000000000000
  0.3750000000000000  0.3750000000000000  0.1250000000000000
  0.8750000000000000  0.6250000000000000  0.3750000000000000
  0.1250000000000000  0.3750000000000000  0.3750000000000000
  0.6250000000000000  0.6250000000000000  0.1250000000000000
  0.7500000000000000  0.2500000000000000  0.2500000000000000
  0.5000000000000000  0.5000000000000000  0.5000000000000000
  0.3756964814917144  0.3756964814917144  0.3756964814917144
  0.8743035185082857  0.1256964814917144  0.1256964814917144
  0.6256964814917143  0.1256964814917144  0.3743035185082856
  0.1256964814917144  0.8743035185082857  0.1256964814917144
  0.1243035185082856  0.1243035185082856  0.3756964814917144
  0.1243035185082856  0.3756964814917144  0.1243035185082856
  0.3743035185082856  0.8743035185082857  0.3743035185082856
  0.3756964814917144  0.1243035185082856  0.1243035185082856
  0.3756964814917144  0.8756964814917143  0.8756964814917143
  0.8743035185082857  0.6256964814917143  0.6256964814917143
  0.6256964814917143  0.6256964814917143  0.8743035185082857
  0.1256964814917144  0.3743035185082856  0.6256964814917143
  0.1243035185082856  0.6243035185082857  0.8756964814917143
  0.1243035185082856  0.8756964814917143  0.6243035185082857
  0.3743035185082856  0.3743035185082856  0.8743035185082857
  0.3756964814917144  0.6243035185082857  0.6243035185082857
  0.8756964814917143  0.3756964814917144  0.8756964814917143
  0.3743035185082856  0.1256964814917144  0.6256964814917143
  0.1256964814917144  0.1256964814917144  0.8743035185082857
  0.6256964814917143  0.8743035185082857  0.6256964814917143
  0.6243035185082857  0.1243035185082856  0.8756964814917143
  0.6243035185082857  0.3756964814917144  0.6243035185082857
  0.8743035185082857  0.8743035185082857  0.8743035185082857
  0.8756964814917143  0.1243035185082856  0.6243035185082857
  0.8756964814917143  0.8756964814917143  0.3756964814917144
  0.3743035185082856  0.6256964814917143  0.1256964814917144
  0.1256964814917144  0.6256964814917143  0.3743035185082856
  0.6256964814917143  0.3743035185082856  0.1256964814917144
  0.6243035185082857  0.6243035185082857  0.3756964814917144
  0.6243035185082857  0.8756964814917143  0.1243035185082856
  0.8743035185082857  0.3743035185082856  0.3743035185082856
  0.8756964814917143  0.6243035185082857  0.1243035185082856
 
  0.00000000E+00  0.00000000E+00  0.00000000E+00
  0.00000000E+00  0.00000000E+00  0.00000000E+00
  0.00000000E+00  0.00000000E+00  0.00000000E+00
  0.00000000E+00  0.00000000E+00  0.00000000E+00
  0.00000000E+00  0.00000000E+00  0.00000000E+00
  0.00000000E+00  0.00000000E+00  0.00000000E+00
  0.00000000E+00  0.00000000E+00  0.00000000E+00
  0.00000000E+00  0.00000000E+00  0.00000000E+00
  0.00000000E+00  0.00000000E+00  0.00000000E+00
  0.00000000E+00  0.00000000E+00  0.00000000E+00
  0.00000000E+00  0.00000000E+00  0.00000000E+00
  0.00000000E+00  0.00000000E+00  0.00000000E+00
  0.00000000E+00  0.00000000E+00  0.00000000E+00
  0.00000000E+00  0.00000000E+00  0.00000000E+00
  0.00000000E+00  0.00000000E+00  0.00000000E+00
  0.00000000E+00  0.00000000E+00  0.00000000E+00
  0.00000000E+00  0.00000000E+00  0.00000000E+00
  0.00000000E+00  0.00000000E+00  0.00000000E+00
  0.00000000E+00  0.00000000E+00  0.00000000E+00
  0.00000000E+00  0.00000000E+00  0.00000000E+00
  0.00000000E+00  0.00000000E+00  0.00000000E+00
  0.00000000E+00  0.00000000E+00  0.00000000E+00
  0.00000000E+00  0.00000000E+00  0.00000000E+00
  0.00000000E+00  0.00000000E+00  0.00000000E+00
  0.00000000E+00  0.00000000E+00  0.00000000E+00
  0.00000000E+00  0.00000000E+00  0.00000000E+00
  0.00000000E+00  0.00000000E+00  0.00000000E+00
  0.00000000E+00  0.00000000E+00  0.00000000E+00
  0.00000000E+00  0.00000000E+00  0.00000000E+00
  0.00000000E+00  0.00000000E+00  0.00000000E+00
  0.00000000E+00  0.00000000E+00  0.00000000E+00
  0.00000000E+00  0.00000000E+00  0.00000000E+00
  0.00000000E+00  0.00000000E+00  0.00000000E+00
  0.00000000E+00  0.00000000E+00  0.00000000E+00
  0.00000000E+00  0.00000000E+00  0.00000000E+00
  0.00000000E+00  0.00000000E+00  0.00000000E+00
  0.00000000E+00  0.00000000E+00  0.00000000E+00
  0.00000000E+00  0.00000000E+00  0.00000000E+00
  0.00000000E+00  0.00000000E+00  0.00000000E+00
  0.00000000E+00  0.00000000E+00  0.00000000E+00
  0.00000000E+00  0.00000000E+00  0.00000000E+00
  0.00000000E+00  0.00000000E+00  0.00000000E+00
  0.00000000E+00  0.00000000E+00  0.00000000E+00
  0.00000000E+00  0.00000000E+00  0.00000000E+00
  0.00000000E+00  0.00000000E+00  0.00000000E+00
  0.00000000E+00  0.00000000E+00  0.00000000E+00
  0.00000000E+00  0.00000000E+00  0.00000000E+00
  0.00000000E+00  0.00000000E+00  0.00000000E+00
  0.00000000E+00  0.00000000E+00  0.00000000E+00
  0.00000000E+00  0.00000000E+00  0.00000000E+00
  0.00000000E+00  0.00000000E+00  0.00000000E+00
  0.00000000E+00  0.00000000E+00  0.00000000E+00
  0.00000000E+00  0.00000000E+00  0.00000000E+00
  0.00000000E+00  0.00000000E+00  0.00000000E+00
  0.00000000E+00  0.00000000E+00  0.00000000E+00
  0.00000000E+00  0.00000000E+00  0.00000000E+00
