Si12 N16                                
   1.00000000000000     
     4.2288013916949767   -7.3244988655336734    0.0000000000000000
     4.2288013916949767    7.3244988655336734    0.0000000000000000
     0.0000000000000000    0.0000000000000000    5.4192088407871335
   Si   N 
    12    16
Direct
  0.0096774635145447  0.6468939280632861  0.2104713130781820
  0.6372164645487416  0.9903225364854554  0.2104713130781820
  0.9127597009514076  0.3216279314741374  0.9917792283156347
  0.6468939280632861  0.0096774635145447  0.7104713130781819
  0.0872402990485927  0.4088682305227230  0.4917792283156348
  0.3216279314741374  0.9127597009514076  0.4917792283156348
  0.3531060719367138  0.3627835354512585  0.2104713130781820
  0.5911317694772772  0.6783720685258626  0.4917792283156348
  0.9903225364854554  0.6372164645487416  0.7104713130781819
  0.3627835354512585  0.3531060719367138  0.7104713130781819
  0.6783720685258626  0.5911317694772772  0.9917792283156347
  0.4088682305227230  0.0872402990485927  0.9917792283156347
  0.2133253980617587  0.3004598343242769  0.4647864313730439
  0.0871344362625182  0.7866746019382413  0.4647864313730439
  0.3004598343242769  0.2133253980617587  0.9647864313730438
  0.6995401656757232  0.9128655637374818  0.4647864313730439
 -0.0000000000000000 -0.0000000000000000  0.9560118306656116
  0.0689951344190593  0.4852670657259047  0.7843324408566166
 -0.0000000000000000 -0.0000000000000000  0.4560118306656116
  0.6666666666666643  0.3333333333333357  0.4860076084639404
  0.5837280686931546  0.5147329342740954  0.2843324408566165
  0.7866746019382413  0.0871344362625182  0.9647864313730438
  0.9128655637374818  0.6995401656757232  0.9647864313730438
  0.3333333333333357  0.6666666666666643  0.9860076084639403
  0.9310048655809408  0.4162719313068455  0.2843324408566165
  0.4162719313068455  0.9310048655809408  0.7843324408566166
  0.5147329342740954  0.5837280686931546  0.7843324408566166
  0.4852670657259047  0.0689951344190593  0.2843324408566165
 
  0.00000000E+00  0.00000000E+00  0.00000000E+00
  0.00000000E+00  0.00000000E+00  0.00000000E+00
  0.00000000E+00  0.00000000E+00  0.00000000E+00
  0.00000000E+00  0.00000000E+00  0.00000000E+00
  0.00000000E+00  0.00000000E+00  0.00000000E+00
  0.00000000E+00  0.00000000E+00  0.00000000E+00
  0.00000000E+00  0.00000000E+00  0.00000000E+00
  0.00000000E+00  0.00000000E+00  0.00000000E+00
  0.00000000E+00  0.00000000E+00  0.00000000E+00
  0.00000000E+00  0.00000000E+00  0.00000000E+00
  0.00000000E+00  0.00000000E+00  0.00000000E+00
  0.00000000E+00  0.00000000E+00  0.00000000E+00
  0.00000000E+00  0.00000000E+00  0.00000000E+00
  0.00000000E+00  0.00000000E+00  0.00000000E+00
  0.00000000E+00  0.00000000E+00  0.00000000E+00
  0.00000000E+00  0.00000000E+00  0.00000000E+00
  0.00000000E+00  0.00000000E+00  0.00000000E+00
  0.00000000E+00  0.00000000E+00  0.00000000E+00
  0.00000000E+00  0.00000000E+00  0.00000000E+00
  0.00000000E+00  0.00000000E+00  0.00000000E+00
  0.00000000E+00  0.00000000E+00  0.00000000E+00
  0.00000000E+00  0.00000000E+00  0.00000000E+00
  0.00000000E+00  0.00000000E+00  0.00000000E+00
  0.00000000E+00  0.00000000E+00  0.00000000E+00
  0.00000000E+00  0.00000000E+00  0.00000000E+00
  0.00000000E+00  0.00000000E+00  0.00000000E+00
  0.00000000E+00  0.00000000E+00  0.00000000E+00
  0.00000000E+00  0.00000000E+00  0.00000000E+00
