Si12 N16
1.0
   4.2288013916949767   -7.3244988655336734    0.0000000000000000
   4.2288013916949767    7.3244988655336734    0.0000000000000000
   0.0000000000000000    0.0000000000000000    5.4192088407871335
Si N
12 16
direct
   0.0084773599094325    0.6471262319250626    0.2132621508811247 Si
   0.6386488720156300    0.9915226400905676    0.2132621508811247 Si
   0.9141780538975458    0.3215774700992470   -0.0081273225021736 Si
   0.6471262319250626    0.0084773599094325    0.7132621508811245 Si
   0.0858219461024543    0.4073994162017010    0.4918726774978261 Si
   0.3215774700992470    0.9141780538975458    0.4918726774978261 Si
   0.3528737680749371    0.3613511279843694    0.2132621508811247 Si
   0.5926005837982985    0.6784225299007535    0.4918726774978261 Si
   0.9915226400905676    0.6386488720156300    0.7132621508811244 Si
   0.3613511279843694    0.3528737680749371    0.7132621508811245 Si
   0.6784225299007534    0.5926005837982985   -0.0081273225021736 Si
   0.4073994162017010    0.0858219461024543   -0.0081273225021736 Si
   0.2131113805600629    0.3004048274140212    0.4667409151810414 N
   0.0872934468539584    0.7868886194399372    0.4667409151810414 N
   0.3004048274140212    0.2131113805600628    0.9667409151810411 N
   0.6995951725859790   -0.0872934468539584    0.4667409151810414 N
   0.0000000000000000   -0.0000000000000000    0.9569272605036885 N
   0.0668635899834424    0.4844976351214027    0.7825987242638857 N
   0.0000000000000000   -0.0000000000000000    0.4569272605036883 N
   0.6666666666666643    0.3333333333333357    0.4757770160246767 N
   0.5823659548620399    0.5155023648785975    0.2825987242638852 N
   0.7868886194399372    0.0872934468539584    0.9667409151810411 N
  -0.0872934468539584    0.6995951725859790    0.9667409151810411 N
   0.3333333333333357    0.6666666666666643   -0.0242229839753230 N
  -0.0668635899834424    0.4176340451379604    0.2825987242638852 N
   0.4176340451379604   -0.0668635899834424    0.7825987242638857 N
   0.5155023648785976    0.5823659548620399    0.7825987242638857 N
   0.4844976351214027    0.0668635899834424    0.2825987242638852 N
