Si12 N16
1.0
   3.8761220993194772   -6.7136404123618716    0.0000000000000000
   3.8761220993194772    6.7136404123618716    0.0000000000000000
   0.0000000000000000    0.0000000000000000    5.6188519590763253
Si N
12 16
direct
   0.0818385600000000    0.5695935600000002    0.1963971800000002 Si4+
   0.4877550000000002    0.9181614400000000    0.1963971800000002 Si4+
   0.9137693700000000    0.1671871600000001    0.9884792700000000 Si4+
   0.5695935600000002    0.0818385600000000    0.6963971800000002 Si4+
   0.0862306300000000    0.2534177900000001    0.4884792700000000 Si4+
   0.1671871600000001    0.9137693700000000    0.4884792700000000 Si4+
   0.4304064399999998    0.5122449999999998    0.1963971800000002 Si4+
   0.7465822099999999    0.8328128399999999    0.4884792700000000 Si4+
   0.9181614400000000    0.4877550000000002    0.6963971800000002 Si4+
   0.5122449999999998    0.4304064399999998    0.6963971800000002 Si4+
   0.8328128399999999    0.7465822099999999    0.9884792700000000 Si4+
   0.2534177900000001    0.0862306300000000    0.9884792700000000 Si4+
   0.3444522200000002    0.3900008900000002    0.4690688800000001 N3-
   0.0455486700000000    0.6555477799999998    0.4690688800000001 N3-
   0.3900008900000002    0.3444522200000002    0.9690688800000001 N3-
   0.6099991099999998    0.9544513300000000    0.4690688800000001 N3-
   0.0000000000000000    0.0000000000000000    0.9890080700000000 N3-
   0.9963785800000002    0.3147330500000002    0.7348454500000001 N3-
   0.0000000000000000    0.0000000000000000    0.4890080700000001 N3-
   0.6666666666666666    0.3333333333333333    0.6407472700000001 N3-
   0.6816455300000001    0.6852669499999998    0.2348454500000001 N3-
   0.6555477799999998    0.0455486700000000    0.9690688800000001 N3-
   0.9544513300000000    0.6099991099999998    0.9690688800000001 N3-
   0.3333333333333333    0.6666666666666666    0.1407472700000001 N3-
   0.0036214199999998    0.3183544699999999    0.2348454500000001 N3-
   0.3183544699999999    0.0036214199999998    0.7348454500000001 N3-
   0.6852669499999998    0.6816455300000001    0.7348454500000001 N3-
   0.3147330500000002    0.9963785800000002    0.2348454500000001 N3-
