Si24 N32                                
   1.00000000000000     
     8.3249547663165551    0.0000000000000001    0.0000000000000006
     0.0000000000000015    8.3249547663165551    0.0000000000000006
     0.0000000000000000    0.0000000000000000    8.3249547663165551
   Si   N 
    24    32
Direct
  0.8750000000000000  0.8750000000000000  0.1250000000000000
  0.3750000000000000  0.1250000000000000  0.3750000000000000
  0.6250000000000000  0.8750000000000000  0.3750000000000000
  0.1250000000000000  0.1250000000000000  0.1250000000000000
  0.2500000000000000  0.7500000000000000  0.2500000000000000
 -0.0000000000000000 -0.0000000000000000  0.5000000000000000
  0.8750000000000000  0.3750000000000000  0.6250000000000000
  0.3750000000000000  0.6250000000000000  0.8750000000000000
  0.6250000000000000  0.3750000000000000  0.8750000000000000
  0.1250000000000000  0.6250000000000000  0.6250000000000000
  0.2500000000000000  0.2500000000000000  0.7500000000000000
 -0.0000000000000000  0.5000000000000000 -0.0000000000000000
  0.3750000000000000  0.8750000000000000  0.6250000000000000
  0.8750000000000000  0.1250000000000000  0.8750000000000000
  0.1250000000000000  0.8750000000000000  0.8750000000000000
  0.6250000000000000  0.1250000000000000  0.6250000000000000
  0.7500000000000000  0.7500000000000000  0.7500000000000000
  0.5000000000000000 -0.0000000000000000 -0.0000000000000000
  0.3750000000000000  0.3750000000000000  0.1250000000000000
  0.8750000000000000  0.6250000000000000  0.3750000000000000
  0.1250000000000000  0.3750000000000000  0.3750000000000000
  0.6250000000000000  0.6250000000000000  0.1250000000000000
  0.7500000000000000  0.2500000000000000  0.2500000000000000
  0.5000000000000000  0.5000000000000000  0.5000000000000000
  0.3764266779561131  0.3764266779561131  0.3764266779561131
  0.8735733220438869  0.1264266779561131  0.1264266779561131
  0.6264266779561131  0.1264266779561131  0.3735733220438869
  0.1264266779561131  0.8735733220438869  0.1264266779561131
  0.1235733220438869  0.1235733220438869  0.3764266779561131
  0.1235733220438869  0.3764266779561131  0.1235733220438869
  0.3735733220438869  0.8735733220438869  0.3735733220438869
  0.3764266779561131  0.1235733220438869  0.1235733220438869
  0.3764266779561131  0.8764266779561131  0.8764266779561131
  0.8735733220438869  0.6264266779561131  0.6264266779561131
  0.6264266779561131  0.6264266779561131  0.8735733220438869
  0.1264266779561131  0.3735733220438869  0.6264266779561131
  0.1235733220438869  0.6235733220438869  0.8764266779561131
  0.1235733220438869  0.8764266779561131  0.6235733220438869
  0.3735733220438869  0.3735733220438869  0.8735733220438869
  0.3764266779561131  0.6235733220438869  0.6235733220438869
  0.8764266779561131  0.3764266779561131  0.8764266779561131
  0.3735733220438869  0.1264266779561131  0.6264266779561131
  0.1264266779561131  0.1264266779561131  0.8735733220438869
  0.6264266779561131  0.8735733220438869  0.6264266779561131
  0.6235733220438869  0.1235733220438869  0.8764266779561131
  0.6235733220438869  0.3764266779561131  0.6235733220438869
  0.8735733220438869  0.8735733220438869  0.8735733220438869
  0.8764266779561131  0.1235733220438869  0.6235733220438869
  0.8764266779561131  0.8764266779561131  0.3764266779561131
  0.3735733220438869  0.6264266779561131  0.1264266779561131
  0.1264266779561131  0.6264266779561131  0.3735733220438869
  0.6264266779561131  0.3735733220438869  0.1264266779561131
  0.6235733220438869  0.6235733220438869  0.3764266779561131
  0.6235733220438869  0.8764266779561131  0.1235733220438869
  0.8735733220438869  0.3735733220438869  0.3735733220438869
  0.8764266779561131  0.6235733220438869  0.1235733220438869
 
  0.00000000E+00  0.00000000E+00  0.00000000E+00
  0.00000000E+00  0.00000000E+00  0.00000000E+00
  0.00000000E+00  0.00000000E+00  0.00000000E+00
  0.00000000E+00  0.00000000E+00  0.00000000E+00
  0.00000000E+00  0.00000000E+00  0.00000000E+00
  0.00000000E+00  0.00000000E+00  0.00000000E+00
  0.00000000E+00  0.00000000E+00  0.00000000E+00
  0.00000000E+00  0.00000000E+00  0.00000000E+00
  0.00000000E+00  0.00000000E+00  0.00000000E+00
  0.00000000E+00  0.00000000E+00  0.00000000E+00
  0.00000000E+00  0.00000000E+00  0.00000000E+00
  0.00000000E+00  0.00000000E+00  0.00000000E+00
  0.00000000E+00  0.00000000E+00  0.00000000E+00
  0.00000000E+00  0.00000000E+00  0.00000000E+00
  0.00000000E+00  0.00000000E+00  0.00000000E+00
  0.00000000E+00  0.00000000E+00  0.00000000E+00
  0.00000000E+00  0.00000000E+00  0.00000000E+00
  0.00000000E+00  0.00000000E+00  0.00000000E+00
  0.00000000E+00  0.00000000E+00  0.00000000E+00
  0.00000000E+00  0.00000000E+00  0.00000000E+00
  0.00000000E+00  0.00000000E+00  0.00000000E+00
  0.00000000E+00  0.00000000E+00  0.00000000E+00
  0.00000000E+00  0.00000000E+00  0.00000000E+00
  0.00000000E+00  0.00000000E+00  0.00000000E+00
  0.00000000E+00  0.00000000E+00  0.00000000E+00
  0.00000000E+00  0.00000000E+00  0.00000000E+00
  0.00000000E+00  0.00000000E+00  0.00000000E+00
  0.00000000E+00  0.00000000E+00  0.00000000E+00
  0.00000000E+00  0.00000000E+00  0.00000000E+00
  0.00000000E+00  0.00000000E+00  0.00000000E+00
  0.00000000E+00  0.00000000E+00  0.00000000E+00
  0.00000000E+00  0.00000000E+00  0.00000000E+00
  0.00000000E+00  0.00000000E+00  0.00000000E+00
  0.00000000E+00  0.00000000E+00  0.00000000E+00
  0.00000000E+00  0.00000000E+00  0.00000000E+00
  0.00000000E+00  0.00000000E+00  0.00000000E+00
  0.00000000E+00  0.00000000E+00  0.00000000E+00
  0.00000000E+00  0.00000000E+00  0.00000000E+00
  0.00000000E+00  0.00000000E+00  0.00000000E+00
  0.00000000E+00  0.00000000E+00  0.00000000E+00
  0.00000000E+00  0.00000000E+00  0.00000000E+00
  0.00000000E+00  0.00000000E+00  0.00000000E+00
  0.00000000E+00  0.00000000E+00  0.00000000E+00
  0.00000000E+00  0.00000000E+00  0.00000000E+00
  0.00000000E+00  0.00000000E+00  0.00000000E+00
  0.00000000E+00  0.00000000E+00  0.00000000E+00
  0.00000000E+00  0.00000000E+00  0.00000000E+00
  0.00000000E+00  0.00000000E+00  0.00000000E+00
  0.00000000E+00  0.00000000E+00  0.00000000E+00
  0.00000000E+00  0.00000000E+00  0.00000000E+00
  0.00000000E+00  0.00000000E+00  0.00000000E+00
  0.00000000E+00  0.00000000E+00  0.00000000E+00
  0.00000000E+00  0.00000000E+00  0.00000000E+00
  0.00000000E+00  0.00000000E+00  0.00000000E+00
  0.00000000E+00  0.00000000E+00  0.00000000E+00
  0.00000000E+00  0.00000000E+00  0.00000000E+00
