Si24 N32                                
   1.00000000000000     
     8.7496973564347460    0.0000000000000001    0.0000000000000006
     0.0000000000000015    8.7496973564347460    0.0000000000000006
     0.0000000000000000    0.0000000000000000    8.7496973564347460
   Si   N 
    24    32
Direct
  0.8750000000000000  0.8750000000000000  0.1250000000000000
  0.3750000000000000  0.1250000000000000  0.3750000000000000
  0.6250000000000000  0.8750000000000000  0.3750000000000000
  0.1250000000000000  0.1250000000000000  0.1250000000000000
  0.2500000000000000  0.7500000000000000  0.2500000000000000
 -0.0000000000000000 -0.0000000000000000  0.5000000000000000
  0.8750000000000000  0.3750000000000000  0.6250000000000000
  0.3750000000000000  0.6250000000000000  0.8750000000000000
  0.6250000000000000  0.3750000000000000  0.8750000000000000
  0.1250000000000000  0.6250000000000000  0.6250000000000000
  0.2500000000000000  0.2500000000000000  0.7500000000000000
 -0.0000000000000000  0.5000000000000000  0.0000000000000000
  0.3750000000000000  0.8750000000000000  0.6250000000000000
  0.8750000000000000  0.1250000000000000  0.8750000000000000
  0.1250000000000000  0.8750000000000000  0.8750000000000000
  0.6250000000000000  0.1250000000000000  0.6250000000000000
  0.7500000000000000  0.7500000000000000  0.7500000000000000
  0.5000000000000000 -0.0000000000000000  0.0000000000000000
  0.3750000000000000  0.3750000000000000  0.1250000000000000
  0.8750000000000000  0.6250000000000000  0.3750000000000000
  0.1250000000000000  0.3750000000000000  0.3750000000000000
  0.6250000000000000  0.6250000000000000  0.1250000000000000
  0.7500000000000000  0.2500000000000000  0.2500000000000000
  0.5000000000000000  0.5000000000000000  0.5000000000000000
  0.3759640223755660  0.3759640223755660  0.3759640223755660
  0.8740359776244340  0.1259640223755660  0.1259640223755660
  0.6259640223755660  0.1259640223755660  0.3740359776244340
  0.1259640223755660  0.8740359776244340  0.1259640223755660
  0.1240359776244340  0.1240359776244340  0.3759640223755660
  0.1240359776244340  0.3759640223755660  0.1240359776244340
  0.3740359776244340  0.8740359776244340  0.3740359776244340
  0.3759640223755660  0.1240359776244340  0.1240359776244340
  0.3759640223755660  0.8759640223755660  0.8759640223755660
  0.8740359776244340  0.6259640223755660  0.6259640223755660
  0.6259640223755660  0.6259640223755660  0.8740359776244340
  0.1259640223755660  0.3740359776244340  0.6259640223755660
  0.1240359776244340  0.6240359776244340  0.8759640223755660
  0.1240359776244340  0.8759640223755660  0.6240359776244340
  0.3740359776244340  0.3740359776244340  0.8740359776244340
  0.3759640223755660  0.6240359776244340  0.6240359776244340
  0.8759640223755660  0.3759640223755660  0.8759640223755660
  0.3740359776244340  0.1259640223755660  0.6259640223755660
  0.1259640223755660  0.1259640223755660  0.8740359776244340
  0.6259640223755660  0.8740359776244340  0.6259640223755660
  0.6240359776244340  0.1240359776244340  0.8759640223755660
  0.6240359776244340  0.3759640223755660  0.6240359776244340
  0.8740359776244340  0.8740359776244340  0.8740359776244340
  0.8759640223755660  0.1240359776244340  0.6240359776244340
  0.8759640223755660  0.8759640223755660  0.3759640223755660
  0.3740359776244340  0.6259640223755660  0.1259640223755660
  0.1259640223755660  0.6259640223755660  0.3740359776244340
  0.6259640223755660  0.3740359776244340  0.1259640223755660
  0.6240359776244340  0.6240359776244340  0.3759640223755660
  0.6240359776244340  0.8759640223755660  0.1240359776244340
  0.8740359776244340  0.3740359776244340  0.3740359776244340
  0.8759640223755660  0.6240359776244340  0.1240359776244340
 
  0.00000000E+00  0.00000000E+00  0.00000000E+00
  0.00000000E+00  0.00000000E+00  0.00000000E+00
  0.00000000E+00  0.00000000E+00  0.00000000E+00
  0.00000000E+00  0.00000000E+00  0.00000000E+00
  0.00000000E+00  0.00000000E+00  0.00000000E+00
  0.00000000E+00  0.00000000E+00  0.00000000E+00
  0.00000000E+00  0.00000000E+00  0.00000000E+00
  0.00000000E+00  0.00000000E+00  0.00000000E+00
  0.00000000E+00  0.00000000E+00  0.00000000E+00
  0.00000000E+00  0.00000000E+00  0.00000000E+00
  0.00000000E+00  0.00000000E+00  0.00000000E+00
  0.00000000E+00  0.00000000E+00  0.00000000E+00
  0.00000000E+00  0.00000000E+00  0.00000000E+00
  0.00000000E+00  0.00000000E+00  0.00000000E+00
  0.00000000E+00  0.00000000E+00  0.00000000E+00
  0.00000000E+00  0.00000000E+00  0.00000000E+00
  0.00000000E+00  0.00000000E+00  0.00000000E+00
  0.00000000E+00  0.00000000E+00  0.00000000E+00
  0.00000000E+00  0.00000000E+00  0.00000000E+00
  0.00000000E+00  0.00000000E+00  0.00000000E+00
  0.00000000E+00  0.00000000E+00  0.00000000E+00
  0.00000000E+00  0.00000000E+00  0.00000000E+00
  0.00000000E+00  0.00000000E+00  0.00000000E+00
  0.00000000E+00  0.00000000E+00  0.00000000E+00
  0.00000000E+00  0.00000000E+00  0.00000000E+00
  0.00000000E+00  0.00000000E+00  0.00000000E+00
  0.00000000E+00  0.00000000E+00  0.00000000E+00
  0.00000000E+00  0.00000000E+00  0.00000000E+00
  0.00000000E+00  0.00000000E+00  0.00000000E+00
  0.00000000E+00  0.00000000E+00  0.00000000E+00
  0.00000000E+00  0.00000000E+00  0.00000000E+00
  0.00000000E+00  0.00000000E+00  0.00000000E+00
  0.00000000E+00  0.00000000E+00  0.00000000E+00
  0.00000000E+00  0.00000000E+00  0.00000000E+00
  0.00000000E+00  0.00000000E+00  0.00000000E+00
  0.00000000E+00  0.00000000E+00  0.00000000E+00
  0.00000000E+00  0.00000000E+00  0.00000000E+00
  0.00000000E+00  0.00000000E+00  0.00000000E+00
  0.00000000E+00  0.00000000E+00  0.00000000E+00
  0.00000000E+00  0.00000000E+00  0.00000000E+00
  0.00000000E+00  0.00000000E+00  0.00000000E+00
  0.00000000E+00  0.00000000E+00  0.00000000E+00
  0.00000000E+00  0.00000000E+00  0.00000000E+00
  0.00000000E+00  0.00000000E+00  0.00000000E+00
  0.00000000E+00  0.00000000E+00  0.00000000E+00
  0.00000000E+00  0.00000000E+00  0.00000000E+00
  0.00000000E+00  0.00000000E+00  0.00000000E+00
  0.00000000E+00  0.00000000E+00  0.00000000E+00
  0.00000000E+00  0.00000000E+00  0.00000000E+00
  0.00000000E+00  0.00000000E+00  0.00000000E+00
  0.00000000E+00  0.00000000E+00  0.00000000E+00
  0.00000000E+00  0.00000000E+00  0.00000000E+00
  0.00000000E+00  0.00000000E+00  0.00000000E+00
  0.00000000E+00  0.00000000E+00  0.00000000E+00
  0.00000000E+00  0.00000000E+00  0.00000000E+00
  0.00000000E+00  0.00000000E+00  0.00000000E+00
