Si24 N32                                
   1.00000000000000     
     8.6647488384111071    0.0000000000000001    0.0000000000000006
     0.0000000000000015    8.6647488384111071    0.0000000000000006
     0.0000000000000000    0.0000000000000000    8.6647488384111071
   Si   N 
    24    32
Direct
  0.8750000000000000  0.8750000000000000  0.1250000000000000
  0.3750000000000000  0.1250000000000000  0.3750000000000000
  0.6250000000000000  0.8750000000000000  0.3750000000000000
  0.1250000000000000  0.1250000000000000  0.1250000000000000
  0.2500000000000000  0.7500000000000000  0.2500000000000000
 -0.0000000000000000 -0.0000000000000000  0.5000000000000000
  0.8750000000000000  0.3750000000000000  0.6250000000000000
  0.3750000000000000  0.6250000000000000  0.8750000000000000
  0.6250000000000000  0.3750000000000000  0.8750000000000000
  0.1250000000000000  0.6250000000000000  0.6250000000000000
  0.2500000000000000  0.2500000000000000  0.7500000000000000
 -0.0000000000000000  0.5000000000000000 -0.0000000000000000
  0.3750000000000000  0.8750000000000000  0.6250000000000000
  0.8750000000000000  0.1250000000000000  0.8750000000000000
  0.1250000000000000  0.8750000000000000  0.8750000000000000
  0.6250000000000000  0.1250000000000000  0.6250000000000000
  0.7500000000000000  0.7500000000000000  0.7500000000000000
  0.5000000000000000 -0.0000000000000000 -0.0000000000000000
  0.3750000000000000  0.3750000000000000  0.1250000000000000
  0.8750000000000000  0.6250000000000000  0.3750000000000000
  0.1250000000000000  0.3750000000000000  0.3750000000000000
  0.6250000000000000  0.6250000000000000  0.1250000000000000
  0.7500000000000000  0.2500000000000000  0.2500000000000000
  0.5000000000000000  0.5000000000000000  0.5000000000000000
  0.3760711714156423  0.3760711714156423  0.3760711714156423
  0.8739288285843576  0.1260711714156424  0.1260711714156424
  0.6260711714156424  0.1260711714156424  0.3739288285843577
  0.1260711714156424  0.8739288285843576  0.1260711714156424
  0.1239288285843576  0.1239288285843576  0.3760711714156423
  0.1239288285843576  0.3760711714156423  0.1239288285843576
  0.3739288285843577  0.8739288285843576  0.3739288285843577
  0.3760711714156423  0.1239288285843576  0.1239288285843576
  0.3760711714156423  0.8760711714156424  0.8760711714156424
  0.8739288285843576  0.6260711714156424  0.6260711714156424
  0.6260711714156424  0.6260711714156424  0.8739288285843576
  0.1260711714156424  0.3739288285843577  0.6260711714156424
  0.1239288285843576  0.6239288285843576  0.8760711714156424
  0.1239288285843576  0.8760711714156424  0.6239288285843576
  0.3739288285843577  0.3739288285843577  0.8739288285843576
  0.3760711714156423  0.6239288285843576  0.6239288285843576
  0.8760711714156424  0.3760711714156423  0.8760711714156424
  0.3739288285843577  0.1260711714156424  0.6260711714156424
  0.1260711714156424  0.1260711714156424  0.8739288285843576
  0.6260711714156424  0.8739288285843576  0.6260711714156424
  0.6239288285843576  0.1239288285843576  0.8760711714156424
  0.6239288285843576  0.3760711714156423  0.6239288285843576
  0.8739288285843576  0.8739288285843576  0.8739288285843576
  0.8760711714156424  0.1239288285843576  0.6239288285843576
  0.8760711714156424  0.8760711714156424  0.3760711714156423
  0.3739288285843577  0.6260711714156424  0.1260711714156424
  0.1260711714156424  0.6260711714156424  0.3739288285843577
  0.6260711714156424  0.3739288285843577  0.1260711714156424
  0.6239288285843576  0.6239288285843576  0.3760711714156423
  0.6239288285843576  0.8760711714156424  0.1239288285843576
  0.8739288285843576  0.3739288285843577  0.3739288285843577
  0.8760711714156424  0.6239288285843576  0.1239288285843576
 
  0.00000000E+00  0.00000000E+00  0.00000000E+00
  0.00000000E+00  0.00000000E+00  0.00000000E+00
  0.00000000E+00  0.00000000E+00  0.00000000E+00
  0.00000000E+00  0.00000000E+00  0.00000000E+00
  0.00000000E+00  0.00000000E+00  0.00000000E+00
  0.00000000E+00  0.00000000E+00  0.00000000E+00
  0.00000000E+00  0.00000000E+00  0.00000000E+00
  0.00000000E+00  0.00000000E+00  0.00000000E+00
  0.00000000E+00  0.00000000E+00  0.00000000E+00
  0.00000000E+00  0.00000000E+00  0.00000000E+00
  0.00000000E+00  0.00000000E+00  0.00000000E+00
  0.00000000E+00  0.00000000E+00  0.00000000E+00
  0.00000000E+00  0.00000000E+00  0.00000000E+00
  0.00000000E+00  0.00000000E+00  0.00000000E+00
  0.00000000E+00  0.00000000E+00  0.00000000E+00
  0.00000000E+00  0.00000000E+00  0.00000000E+00
  0.00000000E+00  0.00000000E+00  0.00000000E+00
  0.00000000E+00  0.00000000E+00  0.00000000E+00
  0.00000000E+00  0.00000000E+00  0.00000000E+00
  0.00000000E+00  0.00000000E+00  0.00000000E+00
  0.00000000E+00  0.00000000E+00  0.00000000E+00
  0.00000000E+00  0.00000000E+00  0.00000000E+00
  0.00000000E+00  0.00000000E+00  0.00000000E+00
  0.00000000E+00  0.00000000E+00  0.00000000E+00
  0.00000000E+00  0.00000000E+00  0.00000000E+00
  0.00000000E+00  0.00000000E+00  0.00000000E+00
  0.00000000E+00  0.00000000E+00  0.00000000E+00
  0.00000000E+00  0.00000000E+00  0.00000000E+00
  0.00000000E+00  0.00000000E+00  0.00000000E+00
  0.00000000E+00  0.00000000E+00  0.00000000E+00
  0.00000000E+00  0.00000000E+00  0.00000000E+00
  0.00000000E+00  0.00000000E+00  0.00000000E+00
  0.00000000E+00  0.00000000E+00  0.00000000E+00
  0.00000000E+00  0.00000000E+00  0.00000000E+00
  0.00000000E+00  0.00000000E+00  0.00000000E+00
  0.00000000E+00  0.00000000E+00  0.00000000E+00
  0.00000000E+00  0.00000000E+00  0.00000000E+00
  0.00000000E+00  0.00000000E+00  0.00000000E+00
  0.00000000E+00  0.00000000E+00  0.00000000E+00
  0.00000000E+00  0.00000000E+00  0.00000000E+00
  0.00000000E+00  0.00000000E+00  0.00000000E+00
  0.00000000E+00  0.00000000E+00  0.00000000E+00
  0.00000000E+00  0.00000000E+00  0.00000000E+00
  0.00000000E+00  0.00000000E+00  0.00000000E+00
  0.00000000E+00  0.00000000E+00  0.00000000E+00
  0.00000000E+00  0.00000000E+00  0.00000000E+00
  0.00000000E+00  0.00000000E+00  0.00000000E+00
  0.00000000E+00  0.00000000E+00  0.00000000E+00
  0.00000000E+00  0.00000000E+00  0.00000000E+00
  0.00000000E+00  0.00000000E+00  0.00000000E+00
  0.00000000E+00  0.00000000E+00  0.00000000E+00
  0.00000000E+00  0.00000000E+00  0.00000000E+00
  0.00000000E+00  0.00000000E+00  0.00000000E+00
  0.00000000E+00  0.00000000E+00  0.00000000E+00
  0.00000000E+00  0.00000000E+00  0.00000000E+00
  0.00000000E+00  0.00000000E+00  0.00000000E+00
