Si12 N16                                
   1.00000000000000     
     4.1860862261223000   -7.2505140285080811    0.0000000000000000
     4.1860862261223000    7.2505140285080811    0.0000000000000000
     0.0000000000000000    0.0000000000000000    5.3644693575468594
   Si   N 
    12    16
Direct
  0.0106354283886517  0.6461831720754424  0.2075185176604328
  0.6355477436867907  0.9893645716113485  0.2075185176604328
  0.9114760075473565  0.3211900009245758  0.9919467805809852
  0.6461831720754424  0.0106354283886517  0.7075185176604329
  0.0885239924526434  0.4097139933772121  0.4919467805809848
  0.3211900009245758  0.9114760075473565  0.4919467805809848
  0.3538168279245576  0.3644522563132093  0.2075185176604328
  0.5902860066227879  0.6788099990754241  0.4919467805809848
  0.9893645716113485  0.6355477436867907  0.7075185176604329
  0.3644522563132093  0.3538168279245576  0.7075185176604329
  0.6788099990754241  0.5902860066227879  0.9919467805809852
  0.4097139933772121  0.0885239924526434  0.9919467805809852
  0.2135879816019677  0.3003805626632766  0.4624364693016668
  0.0867925810613089  0.7864120183980322  0.4624364693016668
  0.3003805626632766  0.2135879816019677  0.9624364693016668
  0.6996194373367232  0.9132074189386914  0.4624364693016668
  0.0000000000000000  0.0000000000000000  0.9522939575405303
  0.0713739849522415  0.4860076937279930  0.7867793879466382
  0.0000000000000000  0.0000000000000000  0.4522939575405302
  0.6666666666666643  0.3333333333333357  0.4977902559902855
  0.5853662912242487  0.5139923062720070  0.2867793879466382
  0.7864120183980322  0.0867925810613089  0.9624364693016668
  0.9132074189386914  0.6996194373367232  0.9624364693016668
  0.3333333333333357  0.6666666666666643  0.9977902559902854
  0.9286260150477587  0.4146337087757516  0.2867793879466382
  0.4146337087757516  0.9286260150477587  0.7867793879466382
  0.5139923062720070  0.5853662912242487  0.7867793879466382
  0.4860076937279930  0.0713739849522415  0.2867793879466382
 
  0.00000000E+00  0.00000000E+00  0.00000000E+00
  0.00000000E+00  0.00000000E+00  0.00000000E+00
  0.00000000E+00  0.00000000E+00  0.00000000E+00
  0.00000000E+00  0.00000000E+00  0.00000000E+00
  0.00000000E+00  0.00000000E+00  0.00000000E+00
  0.00000000E+00  0.00000000E+00  0.00000000E+00
  0.00000000E+00  0.00000000E+00  0.00000000E+00
  0.00000000E+00  0.00000000E+00  0.00000000E+00
  0.00000000E+00  0.00000000E+00  0.00000000E+00
  0.00000000E+00  0.00000000E+00  0.00000000E+00
  0.00000000E+00  0.00000000E+00  0.00000000E+00
  0.00000000E+00  0.00000000E+00  0.00000000E+00
  0.00000000E+00  0.00000000E+00  0.00000000E+00
  0.00000000E+00  0.00000000E+00  0.00000000E+00
  0.00000000E+00  0.00000000E+00  0.00000000E+00
  0.00000000E+00  0.00000000E+00  0.00000000E+00
  0.00000000E+00  0.00000000E+00  0.00000000E+00
  0.00000000E+00  0.00000000E+00  0.00000000E+00
  0.00000000E+00  0.00000000E+00  0.00000000E+00
  0.00000000E+00  0.00000000E+00  0.00000000E+00
  0.00000000E+00  0.00000000E+00  0.00000000E+00
  0.00000000E+00  0.00000000E+00  0.00000000E+00
  0.00000000E+00  0.00000000E+00  0.00000000E+00
  0.00000000E+00  0.00000000E+00  0.00000000E+00
  0.00000000E+00  0.00000000E+00  0.00000000E+00
  0.00000000E+00  0.00000000E+00  0.00000000E+00
  0.00000000E+00  0.00000000E+00  0.00000000E+00
  0.00000000E+00  0.00000000E+00  0.00000000E+00
