Si12 N16                                
   1.00000000000000     
     4.1433710605496241   -7.1765291914824880    0.0000000000000000
     4.1433710605496241    7.1765291914824880    0.0000000000000000
     0.0000000000000000    0.0000000000000000    5.3097298743065853
   Si   N 
    12    16
Direct
  0.0121522583144588  0.6455358579847169  0.2047915242349754
  0.6333835996702580  0.9878477416855412  0.2047915242349754
  0.9103386577207324  0.3210186367131670  0.9919704110179572
  0.6455358579847169  0.0121522583144588  0.7047915242349754
  0.0896613422792677  0.4106799789924275  0.4919704110179571
  0.3210186367131670  0.9103386577207324  0.4919704110179571
  0.3544641420152832  0.3666164003297418  0.2047915242349754
  0.5893200210075726  0.6789813632868330  0.4919704110179571
  0.9878477416855412  0.6333835996702580  0.7047915242349754
  0.3666164003297418  0.3544641420152832  0.7047915242349754
  0.6789813632868330  0.5893200210075726  0.9919704110179572
  0.4106799789924275  0.0896613422792677  0.9919704110179572
  0.2140187880206845  0.3003358889189180  0.4602893281887210
  0.0863171008982336  0.7859812119793154  0.4602893281887210
  0.3003358889189180  0.2140187880206845  0.9602893281887209
  0.6996641110810820  0.9136828991017664  0.4602893281887210
  0.0000000000000000  0.0000000000000000  0.9480531270522969
  0.0740607752323133  0.4867078125276844  0.7890529373355234
  0.0000000000000000  0.0000000000000000  0.4480531270522970
  0.6666666666666643  0.3333333333333357  0.5097619506161558
  0.5873529627046287  0.5132921874723156  0.2890529373355234
  0.7859812119793154  0.0863171008982336  0.9602893281887209
  0.9136828991017664  0.6996641110810820  0.9602893281887209
  0.3333333333333357  0.6666666666666643  0.0097619506161558
  0.9259392247676868  0.4126470372953709  0.2890529373355234
  0.4126470372953709  0.9259392247676868  0.7890529373355234
  0.5132921874723156  0.5873529627046287  0.7890529373355234
  0.4867078125276844  0.0740607752323133  0.2890529373355234
 
  0.00000000E+00  0.00000000E+00  0.00000000E+00
  0.00000000E+00  0.00000000E+00  0.00000000E+00
  0.00000000E+00  0.00000000E+00  0.00000000E+00
  0.00000000E+00  0.00000000E+00  0.00000000E+00
  0.00000000E+00  0.00000000E+00  0.00000000E+00
  0.00000000E+00  0.00000000E+00  0.00000000E+00
  0.00000000E+00  0.00000000E+00  0.00000000E+00
  0.00000000E+00  0.00000000E+00  0.00000000E+00
  0.00000000E+00  0.00000000E+00  0.00000000E+00
  0.00000000E+00  0.00000000E+00  0.00000000E+00
  0.00000000E+00  0.00000000E+00  0.00000000E+00
  0.00000000E+00  0.00000000E+00  0.00000000E+00
  0.00000000E+00  0.00000000E+00  0.00000000E+00
  0.00000000E+00  0.00000000E+00  0.00000000E+00
  0.00000000E+00  0.00000000E+00  0.00000000E+00
  0.00000000E+00  0.00000000E+00  0.00000000E+00
  0.00000000E+00  0.00000000E+00  0.00000000E+00
  0.00000000E+00  0.00000000E+00  0.00000000E+00
  0.00000000E+00  0.00000000E+00  0.00000000E+00
  0.00000000E+00  0.00000000E+00  0.00000000E+00
  0.00000000E+00  0.00000000E+00  0.00000000E+00
  0.00000000E+00  0.00000000E+00  0.00000000E+00
  0.00000000E+00  0.00000000E+00  0.00000000E+00
  0.00000000E+00  0.00000000E+00  0.00000000E+00
  0.00000000E+00  0.00000000E+00  0.00000000E+00
  0.00000000E+00  0.00000000E+00  0.00000000E+00
  0.00000000E+00  0.00000000E+00  0.00000000E+00
  0.00000000E+00  0.00000000E+00  0.00000000E+00
