Si6 N8                                  
   1.00000000000000     
     3.7819764422803797   -6.5505753397031032    0.0000000000000000
     3.7819764324465761    6.5505753453806523    0.0000000000000000
     0.0000000000000000    0.0000000000000000    2.6604697607168450
   Si   N 
     6     8
Direct
  0.1923165035599589  0.8330144700394870  0.7500000000000000
  0.3593020335204719  0.1923165035599589  0.2500000000000000
  0.8330144700394870  0.6406979664795280  0.2500000000000000
  0.1669855299605130  0.3593020335204719  0.7500000000000000
  0.6406979664795280  0.8076834964400411  0.7500000000000000
  0.8076834964400411  0.1669855299605130  0.2500000000000000
  0.3333333333333357  0.6666666666666643  0.7500000000000000
  0.6666666666666643  0.3333333333333357  0.2500000000000000
  0.9618628025186696  0.6101444612520157  0.7500000000000000
  0.3517183412666539  0.9618628025186696  0.2500000000000000
  0.6101444612520157  0.6482816587333461  0.2500000000000000
  0.3898555387479842  0.3517183412666539  0.7500000000000000
  0.0381371974813303  0.3898555387479842  0.2500000000000000
  0.6482816587333461  0.0381371974813303  0.7500000000000000
 
  0.00000000E+00  0.00000000E+00  0.00000000E+00
  0.00000000E+00  0.00000000E+00  0.00000000E+00
  0.00000000E+00  0.00000000E+00  0.00000000E+00
  0.00000000E+00  0.00000000E+00  0.00000000E+00
  0.00000000E+00  0.00000000E+00  0.00000000E+00
  0.00000000E+00  0.00000000E+00  0.00000000E+00
  0.00000000E+00  0.00000000E+00  0.00000000E+00
  0.00000000E+00  0.00000000E+00  0.00000000E+00
  0.00000000E+00  0.00000000E+00  0.00000000E+00
  0.00000000E+00  0.00000000E+00  0.00000000E+00
  0.00000000E+00  0.00000000E+00  0.00000000E+00
  0.00000000E+00  0.00000000E+00  0.00000000E+00
  0.00000000E+00  0.00000000E+00  0.00000000E+00
  0.00000000E+00  0.00000000E+00  0.00000000E+00
