Si12 N16                                
   1.00000000000000     
     4.4850923851310363   -7.7684078876872302    0.0000000000000000
     4.4850923851310363    7.7684078876872302    0.0000000000000000
     0.0000000000000000    0.0000000000000000    5.7476457402287782
   Si   N 
    12    16
Direct
  0.0032236477361414  0.6485704677137240  0.2241675722186219
  0.6453468199775827  0.9967763522638585  0.2241675722186219
  0.9194613884662804  0.3245936909957784  0.9920782968451552
  0.6485704677137240  0.0032236477361414  0.7241675722186218
  0.0805386115337195  0.4051323025294908  0.4920782968451555
  0.3245936909957784  0.9194613884662804  0.4920782968451555
  0.3514295322862759  0.3546531800224174  0.2241675722186219
  0.5948676974705090  0.6754063090042215  0.4920782968451555
  0.9967763522638585  0.6453468199775827  0.7241675722186218
  0.3546531800224174  0.3514295322862759  0.7241675722186218
  0.6754063090042215  0.5948676974705090  0.9920782968451552
  0.4051323025294908  0.0805386115337195  0.9920782968451552
  0.2123915047988500  0.3006125166912579  0.4745311939256106
  0.0882210118924080  0.7876084952011499  0.4745311939256106
  0.3006125166912579  0.2123915047988500  0.9745311939256103
  0.6993874833087418  0.9117789881075918  0.4745311939256106
 -0.0000000000000000 -0.0000000000000000  0.9711726317215100
  0.0594081710107008  0.4830358194775530  0.7751312163078993
 -0.0000000000000000 -0.0000000000000000  0.4711726317215099
  0.6666666666666643  0.3333333333333357  0.4272302103866126
  0.5763723515331477  0.5169641805224472  0.2751312163078992
  0.7876084952011499  0.0882210118924080  0.9745311939256103
  0.9117789881075918  0.6993874833087418  0.9745311939256103
  0.3333333333333357  0.6666666666666643  0.9272302103866124
  0.9405918289892992  0.4236276484668522  0.2751312163078992
  0.4236276484668522  0.9405918289892992  0.7751312163078993
  0.5169641805224472  0.5763723515331477  0.7751312163078993
  0.4830358194775530  0.0594081710107008  0.2751312163078992
 
  0.00000000E+00  0.00000000E+00  0.00000000E+00
  0.00000000E+00  0.00000000E+00  0.00000000E+00
  0.00000000E+00  0.00000000E+00  0.00000000E+00
  0.00000000E+00  0.00000000E+00  0.00000000E+00
  0.00000000E+00  0.00000000E+00  0.00000000E+00
  0.00000000E+00  0.00000000E+00  0.00000000E+00
  0.00000000E+00  0.00000000E+00  0.00000000E+00
  0.00000000E+00  0.00000000E+00  0.00000000E+00
  0.00000000E+00  0.00000000E+00  0.00000000E+00
  0.00000000E+00  0.00000000E+00  0.00000000E+00
  0.00000000E+00  0.00000000E+00  0.00000000E+00
  0.00000000E+00  0.00000000E+00  0.00000000E+00
  0.00000000E+00  0.00000000E+00  0.00000000E+00
  0.00000000E+00  0.00000000E+00  0.00000000E+00
  0.00000000E+00  0.00000000E+00  0.00000000E+00
  0.00000000E+00  0.00000000E+00  0.00000000E+00
  0.00000000E+00  0.00000000E+00  0.00000000E+00
  0.00000000E+00  0.00000000E+00  0.00000000E+00
  0.00000000E+00  0.00000000E+00  0.00000000E+00
  0.00000000E+00  0.00000000E+00  0.00000000E+00
  0.00000000E+00  0.00000000E+00  0.00000000E+00
  0.00000000E+00  0.00000000E+00  0.00000000E+00
  0.00000000E+00  0.00000000E+00  0.00000000E+00
  0.00000000E+00  0.00000000E+00  0.00000000E+00
  0.00000000E+00  0.00000000E+00  0.00000000E+00
  0.00000000E+00  0.00000000E+00  0.00000000E+00
  0.00000000E+00  0.00000000E+00  0.00000000E+00
  0.00000000E+00  0.00000000E+00  0.00000000E+00
