Si24 N32                                
   1.00000000000000     
     8.1550577302692773    0.0000000000000001    0.0000000000000006
     0.0000000000000014    8.1550577302692773    0.0000000000000006
     0.0000000000000000    0.0000000000000000    8.1550577302692773
   Si   N 
    24    32
Direct
  0.8750000000000000  0.8750000000000000  0.1250000000000000
  0.3750000000000000  0.1250000000000000  0.3750000000000000
  0.6250000000000000  0.8750000000000000  0.3750000000000000
  0.1250000000000000  0.1250000000000000  0.1250000000000000
  0.2500000000000000  0.7500000000000000  0.2500000000000000
 -0.0000000000000000 -0.0000000000000000  0.5000000000000000
  0.8750000000000000  0.3750000000000000  0.6250000000000000
  0.3750000000000000  0.6250000000000000  0.8750000000000000
  0.6250000000000000  0.3750000000000000  0.8750000000000000
  0.1250000000000000  0.6250000000000000  0.6250000000000000
  0.2500000000000000  0.2500000000000000  0.7500000000000000
 -0.0000000000000000  0.5000000000000000  0.0000000000000000
  0.3750000000000000  0.8750000000000000  0.6250000000000000
  0.8750000000000000  0.1250000000000000  0.8750000000000000
  0.1250000000000000  0.8750000000000000  0.8750000000000000
  0.6250000000000000  0.1250000000000000  0.6250000000000000
  0.7500000000000000  0.7500000000000000  0.7500000000000000
  0.5000000000000000 -0.0000000000000000  0.0000000000000000
  0.3750000000000000  0.3750000000000000  0.1250000000000000
  0.8750000000000000  0.6250000000000000  0.3750000000000000
  0.1250000000000000  0.3750000000000000  0.3750000000000000
  0.6250000000000000  0.6250000000000000  0.1250000000000000
  0.7500000000000000  0.2500000000000000  0.2500000000000000
  0.5000000000000000  0.5000000000000000  0.5000000000000000
  0.3765615254869620  0.3765615254869620  0.3765615254869620
  0.8734384745130380  0.1265615254869620  0.1265615254869620
  0.6265615254869620  0.1265615254869620  0.3734384745130380
  0.1265615254869620  0.8734384745130380  0.1265615254869620
  0.1234384745130380  0.1234384745130380  0.3765615254869620
  0.1234384745130380  0.3765615254869620  0.1234384745130380
  0.3734384745130380  0.8734384745130380  0.3734384745130380
  0.3765615254869620  0.1234384745130380  0.1234384745130380
  0.3765615254869620  0.8765615254869620  0.8765615254869620
  0.8734384745130380  0.6265615254869620  0.6265615254869620
  0.6265615254869620  0.6265615254869620  0.8734384745130380
  0.1265615254869620  0.3734384745130380  0.6265615254869620
  0.1234384745130380  0.6234384745130380  0.8765615254869620
  0.1234384745130380  0.8765615254869620  0.6234384745130380
  0.3734384745130380  0.3734384745130380  0.8734384745130380
  0.3765615254869620  0.6234384745130380  0.6234384745130380
  0.8765615254869620  0.3765615254869620  0.8765615254869620
  0.3734384745130380  0.1265615254869620  0.6265615254869620
  0.1265615254869620  0.1265615254869620  0.8734384745130380
  0.6265615254869620  0.8734384745130380  0.6265615254869620
  0.6234384745130380  0.1234384745130380  0.8765615254869620
  0.6234384745130380  0.3765615254869620  0.6234384745130380
  0.8734384745130380  0.8734384745130380  0.8734384745130380
  0.8765615254869620  0.1234384745130380  0.6234384745130380
  0.8765615254869620  0.8765615254869620  0.3765615254869620
  0.3734384745130380  0.6265615254869620  0.1265615254869620
  0.1265615254869620  0.6265615254869620  0.3734384745130380
  0.6265615254869620  0.3734384745130380  0.1265615254869620
  0.6234384745130380  0.6234384745130380  0.3765615254869620
  0.6234384745130380  0.8765615254869620  0.1234384745130380
  0.8734384745130380  0.3734384745130380  0.3734384745130380
  0.8765615254869620  0.6234384745130380  0.1234384745130380
 
  0.00000000E+00  0.00000000E+00  0.00000000E+00
  0.00000000E+00  0.00000000E+00  0.00000000E+00
  0.00000000E+00  0.00000000E+00  0.00000000E+00
  0.00000000E+00  0.00000000E+00  0.00000000E+00
  0.00000000E+00  0.00000000E+00  0.00000000E+00
  0.00000000E+00  0.00000000E+00  0.00000000E+00
  0.00000000E+00  0.00000000E+00  0.00000000E+00
  0.00000000E+00  0.00000000E+00  0.00000000E+00
  0.00000000E+00  0.00000000E+00  0.00000000E+00
  0.00000000E+00  0.00000000E+00  0.00000000E+00
  0.00000000E+00  0.00000000E+00  0.00000000E+00
  0.00000000E+00  0.00000000E+00  0.00000000E+00
  0.00000000E+00  0.00000000E+00  0.00000000E+00
  0.00000000E+00  0.00000000E+00  0.00000000E+00
  0.00000000E+00  0.00000000E+00  0.00000000E+00
  0.00000000E+00  0.00000000E+00  0.00000000E+00
  0.00000000E+00  0.00000000E+00  0.00000000E+00
  0.00000000E+00  0.00000000E+00  0.00000000E+00
  0.00000000E+00  0.00000000E+00  0.00000000E+00
  0.00000000E+00  0.00000000E+00  0.00000000E+00
  0.00000000E+00  0.00000000E+00  0.00000000E+00
  0.00000000E+00  0.00000000E+00  0.00000000E+00
  0.00000000E+00  0.00000000E+00  0.00000000E+00
  0.00000000E+00  0.00000000E+00  0.00000000E+00
  0.00000000E+00  0.00000000E+00  0.00000000E+00
  0.00000000E+00  0.00000000E+00  0.00000000E+00
  0.00000000E+00  0.00000000E+00  0.00000000E+00
  0.00000000E+00  0.00000000E+00  0.00000000E+00
  0.00000000E+00  0.00000000E+00  0.00000000E+00
  0.00000000E+00  0.00000000E+00  0.00000000E+00
  0.00000000E+00  0.00000000E+00  0.00000000E+00
  0.00000000E+00  0.00000000E+00  0.00000000E+00
  0.00000000E+00  0.00000000E+00  0.00000000E+00
  0.00000000E+00  0.00000000E+00  0.00000000E+00
  0.00000000E+00  0.00000000E+00  0.00000000E+00
  0.00000000E+00  0.00000000E+00  0.00000000E+00
  0.00000000E+00  0.00000000E+00  0.00000000E+00
  0.00000000E+00  0.00000000E+00  0.00000000E+00
  0.00000000E+00  0.00000000E+00  0.00000000E+00
  0.00000000E+00  0.00000000E+00  0.00000000E+00
  0.00000000E+00  0.00000000E+00  0.00000000E+00
  0.00000000E+00  0.00000000E+00  0.00000000E+00
  0.00000000E+00  0.00000000E+00  0.00000000E+00
  0.00000000E+00  0.00000000E+00  0.00000000E+00
  0.00000000E+00  0.00000000E+00  0.00000000E+00
  0.00000000E+00  0.00000000E+00  0.00000000E+00
  0.00000000E+00  0.00000000E+00  0.00000000E+00
  0.00000000E+00  0.00000000E+00  0.00000000E+00
  0.00000000E+00  0.00000000E+00  0.00000000E+00
  0.00000000E+00  0.00000000E+00  0.00000000E+00
  0.00000000E+00  0.00000000E+00  0.00000000E+00
  0.00000000E+00  0.00000000E+00  0.00000000E+00
  0.00000000E+00  0.00000000E+00  0.00000000E+00
  0.00000000E+00  0.00000000E+00  0.00000000E+00
  0.00000000E+00  0.00000000E+00  0.00000000E+00
  0.00000000E+00  0.00000000E+00  0.00000000E+00
