Si12 N16                                
   1.00000000000000     
     4.1006558949769474   -7.1025443544568958    0.0000000000000000
     4.1006558949769474    7.1025443544568958    0.0000000000000000
     0.0000000000000000    0.0000000000000000    5.2549903910663112
   Si   N 
    12    16
Direct
  0.0142345989417982  0.6449350591587975  0.2031391204985102
  0.6307004602169995  0.9857654010582015  0.2031391204985102
  0.9088632340125284  0.3205164192973485  0.9929334162161826
  0.6449350591587975  0.0142345989417982  0.7031391204985104
  0.0911367659874715  0.4116531852848128  0.4929334162161823
  0.3205164192973485  0.9088632340125284  0.4929334162161823
  0.3550649408412023  0.3692995397830005  0.2031391204985102
  0.5883468147151871  0.6794835807026517  0.4929334162161823
  0.9857654010582015  0.6307004602169995  0.7031391204985104
  0.3692995397830005  0.3550649408412023  0.7031391204985104
  0.6794835807026517  0.5883468147151871  0.9929334162161826
  0.4116531852848128  0.0911367659874715  0.9929334162161826
  0.2140034827556450  0.2994232618728502  0.4601783627817481
  0.0854197791172053  0.7859965172443552  0.4601783627817481
  0.2994232618728502  0.2140034827556450  0.9601783627817480
  0.7005767381271495  0.9145802208827949  0.4601783627817481
 -0.0000000000000000 -0.0000000000000000  0.9279552243089956
  0.0767106031158575  0.4876433858255810  0.7923325017062552
 -0.0000000000000000 -0.0000000000000000  0.4279552243089953
  0.6666666666666643  0.3333333333333357  0.5224222520829009
  0.5890672172902767  0.5123566141744190  0.2923325017062549
  0.7859965172443552  0.0854197791172053  0.9601783627817480
  0.9145802208827949  0.7005767381271495  0.9601783627817480
  0.3333333333333357  0.6666666666666643  0.0224222520829010
  0.9232893968841421  0.4109327827097235  0.2923325017062549
  0.4109327827097235  0.9232893968841421  0.7923325017062552
  0.5123566141744190  0.5890672172902767  0.7923325017062552
  0.4876433858255810  0.0767106031158575  0.2923325017062549
 
  0.00000000E+00  0.00000000E+00  0.00000000E+00
  0.00000000E+00  0.00000000E+00  0.00000000E+00
  0.00000000E+00  0.00000000E+00  0.00000000E+00
  0.00000000E+00  0.00000000E+00  0.00000000E+00
  0.00000000E+00  0.00000000E+00  0.00000000E+00
  0.00000000E+00  0.00000000E+00  0.00000000E+00
  0.00000000E+00  0.00000000E+00  0.00000000E+00
  0.00000000E+00  0.00000000E+00  0.00000000E+00
  0.00000000E+00  0.00000000E+00  0.00000000E+00
  0.00000000E+00  0.00000000E+00  0.00000000E+00
  0.00000000E+00  0.00000000E+00  0.00000000E+00
  0.00000000E+00  0.00000000E+00  0.00000000E+00
  0.00000000E+00  0.00000000E+00  0.00000000E+00
  0.00000000E+00  0.00000000E+00  0.00000000E+00
  0.00000000E+00  0.00000000E+00  0.00000000E+00
  0.00000000E+00  0.00000000E+00  0.00000000E+00
  0.00000000E+00  0.00000000E+00  0.00000000E+00
  0.00000000E+00  0.00000000E+00  0.00000000E+00
  0.00000000E+00  0.00000000E+00  0.00000000E+00
  0.00000000E+00  0.00000000E+00  0.00000000E+00
  0.00000000E+00  0.00000000E+00  0.00000000E+00
  0.00000000E+00  0.00000000E+00  0.00000000E+00
  0.00000000E+00  0.00000000E+00  0.00000000E+00
  0.00000000E+00  0.00000000E+00  0.00000000E+00
  0.00000000E+00  0.00000000E+00  0.00000000E+00
  0.00000000E+00  0.00000000E+00  0.00000000E+00
  0.00000000E+00  0.00000000E+00  0.00000000E+00
  0.00000000E+00  0.00000000E+00  0.00000000E+00
