Si24 N32                                
   1.00000000000000     
     8.4948518023638311    0.0000000000000001    0.0000000000000006
     0.0000000000000015    8.4948518023638311    0.0000000000000006
     0.0000000000000000    0.0000000000000000    8.4948518023638311
   Si   N 
    24    32
Direct
  0.8750000000000000  0.8750000000000000  0.1250000000000000
  0.3750000000000000  0.1250000000000000  0.3750000000000000
  0.6250000000000000  0.8750000000000000  0.3750000000000000
  0.1250000000000000  0.1250000000000000  0.1250000000000000
  0.2500000000000000  0.7500000000000000  0.2500000000000000
  0.0000000000000000  0.0000000000000000  0.5000000000000000
  0.8750000000000000  0.3750000000000000  0.6250000000000000
  0.3750000000000000  0.6250000000000000  0.8750000000000000
  0.6250000000000000  0.3750000000000000  0.8750000000000000
  0.1250000000000000  0.6250000000000000  0.6250000000000000
  0.2500000000000000  0.2500000000000000  0.7500000000000000
  0.0000000000000000  0.5000000000000000 -0.0000000000000000
  0.3750000000000000  0.8750000000000000  0.6250000000000000
  0.8750000000000000  0.1250000000000000  0.8750000000000000
  0.1250000000000000  0.8750000000000000  0.8750000000000000
  0.6250000000000000  0.1250000000000000  0.6250000000000000
  0.7500000000000000  0.7500000000000000  0.7500000000000000
  0.5000000000000000  0.0000000000000000 -0.0000000000000000
  0.3750000000000000  0.3750000000000000  0.1250000000000000
  0.8750000000000000  0.6250000000000000  0.3750000000000000
  0.1250000000000000  0.3750000000000000  0.3750000000000000
  0.6250000000000000  0.6250000000000000  0.1250000000000000
  0.7500000000000000  0.2500000000000000  0.2500000000000000
  0.5000000000000000  0.5000000000000000  0.5000000000000000
  0.3763029335230328  0.3763029335230328  0.3763029335230328
  0.8736970664769673  0.1263029335230328  0.1263029335230328
  0.6263029335230328  0.1263029335230328  0.3736970664769672
  0.1263029335230328  0.8736970664769672  0.1263029335230327
  0.1236970664769672  0.1236970664769672  0.3763029335230328
  0.1236970664769672  0.3763029335230328  0.1236970664769672
  0.3736970664769672  0.8736970664769672  0.3736970664769672
  0.3763029335230328  0.1236970664769672  0.1236970664769672
  0.3763029335230328  0.8763029335230328  0.8763029335230328
  0.8736970664769673  0.6263029335230328  0.6263029335230328
  0.6263029335230328  0.6263029335230328  0.8736970664769673
  0.1263029335230328  0.3736970664769672  0.6263029335230328
  0.1236970664769672  0.6236970664769672  0.8763029335230327
  0.1236970664769672  0.8763029335230328  0.6236970664769672
  0.3736970664769672  0.3736970664769672  0.8736970664769672
  0.3763029335230328  0.6236970664769672  0.6236970664769672
  0.8763029335230328  0.3763029335230328  0.8763029335230328
  0.3736970664769672  0.1263029335230328  0.6263029335230328
  0.1263029335230327  0.1263029335230328  0.8736970664769673
  0.6263029335230327  0.8736970664769672  0.6263029335230328
  0.6236970664769672  0.1236970664769672  0.8763029335230327
  0.6236970664769673  0.3763029335230328  0.6236970664769672
  0.8736970664769672  0.8736970664769672  0.8736970664769672
  0.8763029335230327  0.1236970664769672  0.6236970664769672
  0.8763029335230328  0.8763029335230328  0.3763029335230328
  0.3736970664769672  0.6263029335230328  0.1263029335230328
  0.1263029335230327  0.6263029335230328  0.3736970664769672
  0.6263029335230327  0.3736970664769672  0.1263029335230327
  0.6236970664769672  0.6236970664769672  0.3763029335230328
  0.6236970664769673  0.8763029335230328  0.1236970664769672
  0.8736970664769672  0.3736970664769672  0.3736970664769672
  0.8763029335230327  0.6236970664769672  0.1236970664769673
 
  0.00000000E+00  0.00000000E+00  0.00000000E+00
  0.00000000E+00  0.00000000E+00  0.00000000E+00
  0.00000000E+00  0.00000000E+00  0.00000000E+00
  0.00000000E+00  0.00000000E+00  0.00000000E+00
  0.00000000E+00  0.00000000E+00  0.00000000E+00
  0.00000000E+00  0.00000000E+00  0.00000000E+00
  0.00000000E+00  0.00000000E+00  0.00000000E+00
  0.00000000E+00  0.00000000E+00  0.00000000E+00
  0.00000000E+00  0.00000000E+00  0.00000000E+00
  0.00000000E+00  0.00000000E+00  0.00000000E+00
  0.00000000E+00  0.00000000E+00  0.00000000E+00
  0.00000000E+00  0.00000000E+00  0.00000000E+00
  0.00000000E+00  0.00000000E+00  0.00000000E+00
  0.00000000E+00  0.00000000E+00  0.00000000E+00
  0.00000000E+00  0.00000000E+00  0.00000000E+00
  0.00000000E+00  0.00000000E+00  0.00000000E+00
  0.00000000E+00  0.00000000E+00  0.00000000E+00
  0.00000000E+00  0.00000000E+00  0.00000000E+00
  0.00000000E+00  0.00000000E+00  0.00000000E+00
  0.00000000E+00  0.00000000E+00  0.00000000E+00
  0.00000000E+00  0.00000000E+00  0.00000000E+00
  0.00000000E+00  0.00000000E+00  0.00000000E+00
  0.00000000E+00  0.00000000E+00  0.00000000E+00
  0.00000000E+00  0.00000000E+00  0.00000000E+00
  0.00000000E+00  0.00000000E+00  0.00000000E+00
  0.00000000E+00  0.00000000E+00  0.00000000E+00
  0.00000000E+00  0.00000000E+00  0.00000000E+00
  0.00000000E+00  0.00000000E+00  0.00000000E+00
  0.00000000E+00  0.00000000E+00  0.00000000E+00
  0.00000000E+00  0.00000000E+00  0.00000000E+00
  0.00000000E+00  0.00000000E+00  0.00000000E+00
  0.00000000E+00  0.00000000E+00  0.00000000E+00
  0.00000000E+00  0.00000000E+00  0.00000000E+00
  0.00000000E+00  0.00000000E+00  0.00000000E+00
  0.00000000E+00  0.00000000E+00  0.00000000E+00
  0.00000000E+00  0.00000000E+00  0.00000000E+00
  0.00000000E+00  0.00000000E+00  0.00000000E+00
  0.00000000E+00  0.00000000E+00  0.00000000E+00
  0.00000000E+00  0.00000000E+00  0.00000000E+00
  0.00000000E+00  0.00000000E+00  0.00000000E+00
  0.00000000E+00  0.00000000E+00  0.00000000E+00
  0.00000000E+00  0.00000000E+00  0.00000000E+00
  0.00000000E+00  0.00000000E+00  0.00000000E+00
  0.00000000E+00  0.00000000E+00  0.00000000E+00
  0.00000000E+00  0.00000000E+00  0.00000000E+00
  0.00000000E+00  0.00000000E+00  0.00000000E+00
  0.00000000E+00  0.00000000E+00  0.00000000E+00
  0.00000000E+00  0.00000000E+00  0.00000000E+00
  0.00000000E+00  0.00000000E+00  0.00000000E+00
  0.00000000E+00  0.00000000E+00  0.00000000E+00
  0.00000000E+00  0.00000000E+00  0.00000000E+00
  0.00000000E+00  0.00000000E+00  0.00000000E+00
  0.00000000E+00  0.00000000E+00  0.00000000E+00
  0.00000000E+00  0.00000000E+00  0.00000000E+00
  0.00000000E+00  0.00000000E+00  0.00000000E+00
  0.00000000E+00  0.00000000E+00  0.00000000E+00
