Si24 N32
1.0
   7.7874359999999996    0.0000000000000000    0.0000000000000005
   0.0000000000000013    7.7874359999999996    0.0000000000000005
   0.0000000000000000    0.0000000000000000    7.7874359999999996
Si N
24 32
direct
   0.8750000000000000    0.8750000000000000    0.1250000000000000 Si4+
   0.3750000000000000    0.1250000000000000    0.3750000000000000 Si4+
   0.6250000000000000    0.8750000000000000    0.3750000000000000 Si4+
   0.1250000000000000    0.1250000000000000    0.1250000000000000 Si4+
   0.2500000000000000    0.7500000000000000    0.2500000000000000 Si4+
   0.0000000000000000    0.0000000000000000    0.5000000000000000 Si4+
   0.8750000000000000    0.3750000000000000    0.6250000000000000 Si4+
   0.3750000000000000    0.6250000000000000    0.8750000000000000 Si4+
   0.6250000000000000    0.3750000000000000    0.8750000000000000 Si4+
   0.1250000000000000    0.6250000000000000    0.6250000000000000 Si4+
   0.2500000000000000    0.2500000000000000    0.7500000000000000 Si4+
   0.0000000000000000    0.5000000000000000    0.0000000000000000 Si4+
   0.3750000000000000    0.8750000000000000    0.6250000000000000 Si4+
   0.8750000000000000    0.1250000000000000    0.8750000000000000 Si4+
   0.1250000000000000    0.8750000000000000    0.8750000000000000 Si4+
   0.6250000000000000    0.1250000000000000    0.6250000000000000 Si4+
   0.7500000000000000    0.7500000000000000    0.7500000000000000 Si4+
   0.5000000000000000    0.0000000000000000    0.0000000000000000 Si4+
   0.3750000000000000    0.3750000000000000    0.1250000000000000 Si4+
   0.8750000000000000    0.6250000000000000    0.3750000000000000 Si4+
   0.1250000000000000    0.3750000000000000    0.3750000000000000 Si4+
   0.6250000000000000    0.6250000000000000    0.1250000000000000 Si4+
   0.7500000000000000    0.2500000000000000    0.2500000000000000 Si4+
   0.5000000000000000    0.5000000000000000    0.5000000000000000 Si4+
   0.3675630000000000    0.3675630000000000    0.3675630000000000 N3-
   0.8824370000000000    0.1175630000000001    0.1175630000000001 N3-
   0.6175630000000000    0.1175630000000001    0.3824370000000000 N3-
   0.1175630000000001    0.8824370000000000    0.1175630000000001 N3-
   0.1324370000000000    0.1324370000000000    0.3675630000000000 N3-
   0.1324370000000000    0.3675630000000000    0.1324370000000000 N3-
   0.3824370000000000    0.8824370000000000    0.3824370000000000 N3-
   0.3675630000000000    0.1324370000000000    0.1324370000000000 N3-
   0.3675630000000000    0.8675630000000000    0.8675630000000000 N3-
   0.8824370000000000    0.6175630000000001    0.6175630000000001 N3-
   0.6175630000000000    0.6175630000000001    0.8824370000000000 N3-
   0.1175630000000001    0.3824369999999999    0.6175630000000001 N3-
   0.1324370000000000    0.6324370000000000    0.8675630000000000 N3-
   0.1324370000000000    0.8675630000000000    0.6324370000000000 N3-
   0.3824370000000000    0.3824369999999999    0.8824370000000000 N3-
   0.3675630000000000    0.6324370000000000    0.6324370000000000 N3-
   0.8675630000000000    0.3675630000000000    0.8675630000000000 N3-
   0.3824369999999999    0.1175630000000001    0.6175630000000001 N3-
   0.1175630000000001    0.1175630000000001    0.8824370000000000 N3-
   0.6175630000000001    0.8824370000000000    0.6175630000000001 N3-
   0.6324370000000000    0.1324370000000000    0.8675630000000000 N3-
   0.6324370000000000    0.3675630000000000    0.6324370000000000 N3-
   0.8824370000000000    0.8824370000000000    0.8824370000000000 N3-
   0.8675630000000000    0.1324370000000000    0.6324370000000000 N3-
   0.8675630000000000    0.8675630000000000    0.3675630000000000 N3-
   0.3824369999999999    0.6175630000000001    0.1175630000000001 N3-
   0.1175630000000001    0.6175630000000001    0.3824370000000000 N3-
   0.6175630000000001    0.3824369999999999    0.1175630000000001 N3-
   0.6324370000000000    0.6324370000000000    0.3675630000000000 N3-
   0.6324370000000000    0.8675630000000000    0.1324370000000000 N3-
   0.8824370000000000    0.3824369999999999    0.3824370000000000 N3-
   0.8675630000000000    0.6324370000000000    0.1324370000000000 N3-
