Si12 N16                                
   1.00000000000000     
     4.0579407294042706   -7.0285595174313027    0.0000000000000000
     4.0579407294042706    7.0285595174313027    0.0000000000000000
     0.0000000000000000    0.0000000000000000    5.2002509078260371
   Si   N 
    12    16
Direct
  0.0172451578950024  0.6446422569797557  0.2010168406265634
  0.6273970990847537  0.9827548421049975  0.2010168406265634
  0.9083962990774600  0.3200219282741203  0.9955199550404591
  0.6446422569797557  0.0172451578950024  0.7010168406265630
  0.0916037009225401  0.4116256291966534  0.4955199550404592
  0.3200219282741203  0.9083962990774600  0.4955199550404592
  0.3553577430202438  0.3726029009152461  0.2010168406265634
  0.5883743708033466  0.6799780717258797  0.4955199550404592
  0.9827548421049975  0.6273970990847537  0.7010168406265630
  0.3726029009152461  0.3553577430202438  0.7010168406265630
  0.6799780717258797  0.5883743708033466  0.9955199550404591
  0.4116256291966534  0.0916037009225401  0.9955199550404591
  0.2140125533339630  0.2985446126194085  0.4599146362585807
  0.0845320592854454  0.7859874466660370  0.4599146362585807
  0.2985446126194085  0.2140125533339630  0.9599146362585808
  0.7014553873805917  0.9154679407145544  0.4599146362585807
  0.0000000000000000 -0.0000000000000000  0.9019622691166156
  0.0794922080467104  0.4887617978926701  0.7965509133979555
  0.0000000000000000 -0.0000000000000000  0.4019622691166153
  0.6666666666666643  0.3333333333333357  0.5351583749126921
  0.5907304101540399  0.5112382021073297  0.2965509133979554
  0.7859874466660370  0.0845320592854454  0.9599146362585808
  0.9154679407145544  0.7014553873805917  0.9599146362585808
  0.3333333333333357  0.6666666666666643  0.0351583749126920
  0.9205077919532897  0.4092695898459598  0.2965509133979554
  0.4092695898459598  0.9205077919532897  0.7965509133979555
  0.5112382021073297  0.5907304101540399  0.7965509133979555
  0.4887617978926701  0.0794922080467104  0.2965509133979554
 
  0.00000000E+00  0.00000000E+00  0.00000000E+00
  0.00000000E+00  0.00000000E+00  0.00000000E+00
  0.00000000E+00  0.00000000E+00  0.00000000E+00
  0.00000000E+00  0.00000000E+00  0.00000000E+00
  0.00000000E+00  0.00000000E+00  0.00000000E+00
  0.00000000E+00  0.00000000E+00  0.00000000E+00
  0.00000000E+00  0.00000000E+00  0.00000000E+00
  0.00000000E+00  0.00000000E+00  0.00000000E+00
  0.00000000E+00  0.00000000E+00  0.00000000E+00
  0.00000000E+00  0.00000000E+00  0.00000000E+00
  0.00000000E+00  0.00000000E+00  0.00000000E+00
  0.00000000E+00  0.00000000E+00  0.00000000E+00
  0.00000000E+00  0.00000000E+00  0.00000000E+00
  0.00000000E+00  0.00000000E+00  0.00000000E+00
  0.00000000E+00  0.00000000E+00  0.00000000E+00
  0.00000000E+00  0.00000000E+00  0.00000000E+00
  0.00000000E+00  0.00000000E+00  0.00000000E+00
  0.00000000E+00  0.00000000E+00  0.00000000E+00
  0.00000000E+00  0.00000000E+00  0.00000000E+00
  0.00000000E+00  0.00000000E+00  0.00000000E+00
  0.00000000E+00  0.00000000E+00  0.00000000E+00
  0.00000000E+00  0.00000000E+00  0.00000000E+00
  0.00000000E+00  0.00000000E+00  0.00000000E+00
  0.00000000E+00  0.00000000E+00  0.00000000E+00
  0.00000000E+00  0.00000000E+00  0.00000000E+00
  0.00000000E+00  0.00000000E+00  0.00000000E+00
  0.00000000E+00  0.00000000E+00  0.00000000E+00
  0.00000000E+00  0.00000000E+00  0.00000000E+00
