Si6 N8                                  
   1.00000000000000     
     4.1004586689987272   -7.1022027367307334    0.0000000000000000
     4.1004586583368150    7.1022027428863925    0.0000000000000000
     0.0000000000000000    0.0000000000000000    2.8845093195140530
   Si   N 
     6     8
Direct
  0.1912926640864883  0.8482135587438843  0.7500000000000000
  0.3430791053426042  0.1912926640864883  0.2500000000000000
  0.8482135587438843  0.6569208946573956  0.2500000000000000
  0.1517864412561158  0.3430791053426042  0.7500000000000000
  0.6569208946573956  0.8087073359135114  0.7500000000000000
  0.8087073359135114  0.1517864412561158  0.2500000000000000
  0.3333333333333357  0.6666666666666643  0.7500000000000000
  0.6666666666666643  0.3333333333333357  0.2500000000000000
  0.9671204364864174  0.6332902711267330  0.7500000000000000
  0.3338301653596846  0.9671204364864174  0.2500000000000000
  0.6332902711267330  0.6661698346403153  0.2500000000000000
  0.3667097288732671  0.3338301653596846  0.7500000000000000
  0.0328795635135824  0.3667097288732671  0.2500000000000000
  0.6661698346403153  0.0328795635135824  0.7500000000000000
 
  0.00000000E+00  0.00000000E+00  0.00000000E+00
  0.00000000E+00  0.00000000E+00  0.00000000E+00
  0.00000000E+00  0.00000000E+00  0.00000000E+00
  0.00000000E+00  0.00000000E+00  0.00000000E+00
  0.00000000E+00  0.00000000E+00  0.00000000E+00
  0.00000000E+00  0.00000000E+00  0.00000000E+00
  0.00000000E+00  0.00000000E+00  0.00000000E+00
  0.00000000E+00  0.00000000E+00  0.00000000E+00
  0.00000000E+00  0.00000000E+00  0.00000000E+00
  0.00000000E+00  0.00000000E+00  0.00000000E+00
  0.00000000E+00  0.00000000E+00  0.00000000E+00
  0.00000000E+00  0.00000000E+00  0.00000000E+00
  0.00000000E+00  0.00000000E+00  0.00000000E+00
  0.00000000E+00  0.00000000E+00  0.00000000E+00
