Si6 N8                                  
   1.00000000000000     
     3.8217867206201728   -6.6195287643315570    0.0000000000000000
     3.8217867106828560    6.6195287700688699    0.0000000000000000
     0.0000000000000000    0.0000000000000000    2.6884747055664961
   Si   N 
     6     8
Direct
  0.1933122576166214  0.8325792907644863  0.7500000000000000
  0.3607329668521350  0.1933122576166214  0.2500000000000000
  0.8325792907644863  0.6392670331478650  0.2500000000000000
  0.1674207092355136  0.3607329668521350  0.7500000000000000
  0.6392670331478650  0.8066877423833786  0.7500000000000000
  0.8066877423833786  0.1674207092355136  0.2500000000000000
  0.3333333333333357  0.6666666666666643  0.7500000000000000
  0.6666666666666643  0.3333333333333357  0.2500000000000000
  0.9622175175432863  0.6106043354374712  0.7500000000000000
  0.3516131821058153  0.9622175175432863  0.2500000000000000
  0.6106043354374712  0.6483868178941847  0.2500000000000000
  0.3893956645625290  0.3516131821058153  0.7500000000000000
  0.0377824824567136  0.3893956645625290  0.2500000000000000
  0.6483868178941847  0.0377824824567136  0.7500000000000000
 
  0.00000000E+00  0.00000000E+00  0.00000000E+00
  0.00000000E+00  0.00000000E+00  0.00000000E+00
  0.00000000E+00  0.00000000E+00  0.00000000E+00
  0.00000000E+00  0.00000000E+00  0.00000000E+00
  0.00000000E+00  0.00000000E+00  0.00000000E+00
  0.00000000E+00  0.00000000E+00  0.00000000E+00
  0.00000000E+00  0.00000000E+00  0.00000000E+00
  0.00000000E+00  0.00000000E+00  0.00000000E+00
  0.00000000E+00  0.00000000E+00  0.00000000E+00
  0.00000000E+00  0.00000000E+00  0.00000000E+00
  0.00000000E+00  0.00000000E+00  0.00000000E+00
  0.00000000E+00  0.00000000E+00  0.00000000E+00
  0.00000000E+00  0.00000000E+00  0.00000000E+00
  0.00000000E+00  0.00000000E+00  0.00000000E+00
