Si12 N16                                
   1.00000000000000     
     4.3142317228403302   -7.4724685395848596    0.0000000000000000
     4.3142317228403302    7.4724685395848596    0.0000000000000000
     0.0000000000000000    0.0000000000000000    5.5286878072676817
   Si   N 
    12    16
Direct
  0.0064131508861390  0.6474716153066147  0.2159792286144729
  0.6410584644204759  0.9935868491138610  0.2159792286144729
  0.9150219293808070  0.3221233357595274  0.9918283404890113
  0.6474716153066147  0.0064131508861390  0.7159792286144727
  0.0849780706191932  0.4071014063787134  0.4918283404890113
  0.3221233357595274  0.9150219293808070  0.4918283404890113
  0.3525283846933851  0.3589415355795244  0.2159792286144729
  0.5928985936212865  0.6778766642404727  0.4918283404890113
  0.9935868491138610  0.6410584644204759  0.7159792286144727
  0.3589415355795244  0.3525283846933851  0.7159792286144727
  0.6778766642404727  0.5928985936212865  0.9918283404890113
  0.4071014063787134  0.0849780706191932  0.9918283404890113
  0.2129181407953580  0.3003882033576626  0.4682771177870780
  0.0874700625623046  0.7870818592046420  0.4682771177870780
  0.3003882033576626  0.2129181407953580  0.9682771177870780
  0.6996117966423374  0.9125299374376955  0.4682771177870780
  0.0000000000000000  0.0000000000000000  0.9596614931038675
  0.0650270085043458  0.4840545245765669  0.7808753600394420
  0.0000000000000000  0.0000000000000000  0.4596614931038674
  0.6666666666666643  0.3333333333333357  0.4655860461061039
  0.5809724839277788  0.5159454754234332  0.2808753600394420
  0.7870818592046420  0.0874700625623046  0.9682771177870780
  0.9125299374376955  0.6996117966423374  0.9682771177870780
  0.3333333333333357  0.6666666666666643  0.9655860461061039
  0.9349729914956543  0.4190275160722212  0.2808753600394420
  0.4190275160722212  0.9349729914956543  0.7808753600394420
  0.5159454754234332  0.5809724839277788  0.7808753600394420
  0.4840545245765669  0.0650270085043458  0.2808753600394420
 
  0.00000000E+00  0.00000000E+00  0.00000000E+00
  0.00000000E+00  0.00000000E+00  0.00000000E+00
  0.00000000E+00  0.00000000E+00  0.00000000E+00
  0.00000000E+00  0.00000000E+00  0.00000000E+00
  0.00000000E+00  0.00000000E+00  0.00000000E+00
  0.00000000E+00  0.00000000E+00  0.00000000E+00
  0.00000000E+00  0.00000000E+00  0.00000000E+00
  0.00000000E+00  0.00000000E+00  0.00000000E+00
  0.00000000E+00  0.00000000E+00  0.00000000E+00
  0.00000000E+00  0.00000000E+00  0.00000000E+00
  0.00000000E+00  0.00000000E+00  0.00000000E+00
  0.00000000E+00  0.00000000E+00  0.00000000E+00
  0.00000000E+00  0.00000000E+00  0.00000000E+00
  0.00000000E+00  0.00000000E+00  0.00000000E+00
  0.00000000E+00  0.00000000E+00  0.00000000E+00
  0.00000000E+00  0.00000000E+00  0.00000000E+00
  0.00000000E+00  0.00000000E+00  0.00000000E+00
  0.00000000E+00  0.00000000E+00  0.00000000E+00
  0.00000000E+00  0.00000000E+00  0.00000000E+00
  0.00000000E+00  0.00000000E+00  0.00000000E+00
  0.00000000E+00  0.00000000E+00  0.00000000E+00
  0.00000000E+00  0.00000000E+00  0.00000000E+00
  0.00000000E+00  0.00000000E+00  0.00000000E+00
  0.00000000E+00  0.00000000E+00  0.00000000E+00
  0.00000000E+00  0.00000000E+00  0.00000000E+00
  0.00000000E+00  0.00000000E+00  0.00000000E+00
  0.00000000E+00  0.00000000E+00  0.00000000E+00
  0.00000000E+00  0.00000000E+00  0.00000000E+00
