Si12 N16                                
   1.00000000000000     
     4.4423772195583595   -7.6944230506616371    0.0000000000000000
     4.4423772195583595    7.6944230506616371    0.0000000000000000
     0.0000000000000000    0.0000000000000000    5.6929062569885041
   Si   N 
    12    16
Direct
  0.0040694641529947  0.6485128343306200  0.2222946262201621
  0.6444433701776253  0.9959305358470054  0.2222946262201621
  0.9184016255942558  0.3239811780510094  0.9919525401893381
  0.6485128343306200  0.0040694641529947  0.7222946262201621
  0.0815983744057443  0.4055795524567464  0.4919525401893381
  0.3239811780510094  0.9184016255942558  0.4919525401893381
  0.3514871656693802  0.3555566298223748  0.2222946262201621
  0.5944204475432534  0.6760188219489905  0.4919525401893381
  0.9959305358470054  0.6444433701776253  0.7222946262201621
  0.3555566298223748  0.3514871656693802  0.7222946262201621
  0.6760188219489905  0.5944204475432534  0.9919525401893381
  0.4055795524567464  0.0815983744057443  0.9919525401893381
  0.2123893754346422  0.3005909861834761  0.4731028458376968
  0.0882016107488339  0.7876106245653576  0.4731028458376968
  0.3005909861834761  0.2123893754346422  0.9731028458376966
  0.6994090138165241  0.9117983892511660  0.4731028458376968
 -0.0000000000000000  0.0000000000000000  0.9691634061690475
  0.0605027157352699  0.4832333555650404  0.7762914941169653
 -0.0000000000000000  0.0000000000000000  0.4691634061690475
  0.6666666666666643  0.3333333333333357  0.4360397547384497
  0.5772693601702295  0.5167666444349595  0.2762914941169651
  0.7876106245653576  0.0882016107488339  0.9731028458376966
  0.9117983892511660  0.6994090138165241  0.9731028458376966
  0.3333333333333357  0.6666666666666643  0.9360397547384498
  0.9394972842647299  0.4227306398297706  0.2762914941169651
  0.4227306398297706  0.9394972842647299  0.7762914941169653
  0.5167666444349595  0.5772693601702295  0.7762914941169653
  0.4832333555650404  0.0605027157352699  0.2762914941169651
 
  0.00000000E+00  0.00000000E+00  0.00000000E+00
  0.00000000E+00  0.00000000E+00  0.00000000E+00
  0.00000000E+00  0.00000000E+00  0.00000000E+00
  0.00000000E+00  0.00000000E+00  0.00000000E+00
  0.00000000E+00  0.00000000E+00  0.00000000E+00
  0.00000000E+00  0.00000000E+00  0.00000000E+00
  0.00000000E+00  0.00000000E+00  0.00000000E+00
  0.00000000E+00  0.00000000E+00  0.00000000E+00
  0.00000000E+00  0.00000000E+00  0.00000000E+00
  0.00000000E+00  0.00000000E+00  0.00000000E+00
  0.00000000E+00  0.00000000E+00  0.00000000E+00
  0.00000000E+00  0.00000000E+00  0.00000000E+00
  0.00000000E+00  0.00000000E+00  0.00000000E+00
  0.00000000E+00  0.00000000E+00  0.00000000E+00
  0.00000000E+00  0.00000000E+00  0.00000000E+00
  0.00000000E+00  0.00000000E+00  0.00000000E+00
  0.00000000E+00  0.00000000E+00  0.00000000E+00
  0.00000000E+00  0.00000000E+00  0.00000000E+00
  0.00000000E+00  0.00000000E+00  0.00000000E+00
  0.00000000E+00  0.00000000E+00  0.00000000E+00
  0.00000000E+00  0.00000000E+00  0.00000000E+00
  0.00000000E+00  0.00000000E+00  0.00000000E+00
  0.00000000E+00  0.00000000E+00  0.00000000E+00
  0.00000000E+00  0.00000000E+00  0.00000000E+00
  0.00000000E+00  0.00000000E+00  0.00000000E+00
  0.00000000E+00  0.00000000E+00  0.00000000E+00
  0.00000000E+00  0.00000000E+00  0.00000000E+00
  0.00000000E+00  0.00000000E+00  0.00000000E+00
