Si24 N32                                
   1.00000000000000     
     8.5798003203874700    0.0000000000000001    0.0000000000000006
     0.0000000000000015    8.5798003203874700    0.0000000000000006
     0.0000000000000000    0.0000000000000000    8.5798003203874700
   Si   N 
    24    32
Direct
  0.8750000000000000  0.8750000000000000  0.1250000000000000
  0.3750000000000000  0.1250000000000000  0.3750000000000000
  0.6250000000000000  0.8750000000000000  0.3750000000000000
  0.1250000000000000  0.1250000000000000  0.1250000000000000
  0.2500000000000000  0.7500000000000000  0.2500000000000000
  0.0000000000000000 -0.0000000000000000  0.5000000000000000
  0.8750000000000000  0.3750000000000000  0.6250000000000000
  0.3750000000000000  0.6250000000000000  0.8750000000000000
  0.6250000000000000  0.3750000000000000  0.8750000000000000
  0.1250000000000000  0.6250000000000000  0.6250000000000000
  0.2500000000000000  0.2500000000000000  0.7500000000000000
  0.0000000000000000  0.5000000000000000 -0.0000000000000000
  0.3750000000000000  0.8750000000000000  0.6250000000000000
  0.8750000000000000  0.1250000000000000  0.8750000000000000
  0.1250000000000000  0.8750000000000000  0.8750000000000000
  0.6250000000000000  0.1250000000000000  0.6250000000000000
  0.7500000000000000  0.7500000000000000  0.7500000000000000
  0.5000000000000000 -0.0000000000000000 -0.0000000000000000
  0.3750000000000000  0.3750000000000000  0.1250000000000000
  0.8750000000000000  0.6250000000000000  0.3750000000000000
  0.1250000000000000  0.3750000000000000  0.3750000000000000
  0.6250000000000000  0.6250000000000000  0.1250000000000000
  0.7500000000000000  0.2500000000000000  0.2500000000000000
  0.5000000000000000  0.5000000000000000  0.5000000000000000
  0.3761682949544649  0.3761682949544649  0.3761682949544649
  0.8738317050455351  0.1261682949544649  0.1261682949544649
  0.6261682949544649  0.1261682949544649  0.3738317050455351
  0.1261682949544649  0.8738317050455351  0.1261682949544649
  0.1238317050455351  0.1238317050455351  0.3761682949544649
  0.1238317050455351  0.3761682949544649  0.1238317050455351
  0.3738317050455351  0.8738317050455351  0.3738317050455351
  0.3761682949544649  0.1238317050455351  0.1238317050455351
  0.3761682949544649  0.8761682949544649  0.8761682949544649
  0.8738317050455351  0.6261682949544649  0.6261682949544649
  0.6261682949544649  0.6261682949544649  0.8738317050455351
  0.1261682949544649  0.3738317050455351  0.6261682949544649
  0.1238317050455351  0.6238317050455351  0.8761682949544649
  0.1238317050455351  0.8761682949544649  0.6238317050455351
  0.3738317050455351  0.3738317050455351  0.8738317050455351
  0.3761682949544649  0.6238317050455351  0.6238317050455351
  0.8761682949544649  0.3761682949544649  0.8761682949544649
  0.3738317050455351  0.1261682949544649  0.6261682949544649
  0.1261682949544649  0.1261682949544649  0.8738317050455351
  0.6261682949544649  0.8738317050455351  0.6261682949544649
  0.6238317050455351  0.1238317050455351  0.8761682949544649
  0.6238317050455351  0.3761682949544649  0.6238317050455351
  0.8738317050455351  0.8738317050455351  0.8738317050455351
  0.8761682949544649  0.1238317050455351  0.6238317050455351
  0.8761682949544649  0.8761682949544649  0.3761682949544649
  0.3738317050455351  0.6261682949544649  0.1261682949544649
  0.1261682949544649  0.6261682949544649  0.3738317050455351
  0.6261682949544649  0.3738317050455351  0.1261682949544649
  0.6238317050455351  0.6238317050455351  0.3761682949544649
  0.6238317050455351  0.8761682949544649  0.1238317050455351
  0.8738317050455351  0.3738317050455351  0.3738317050455351
  0.8761682949544649  0.6238317050455351  0.1238317050455351
 
  0.00000000E+00  0.00000000E+00  0.00000000E+00
  0.00000000E+00  0.00000000E+00  0.00000000E+00
  0.00000000E+00  0.00000000E+00  0.00000000E+00
  0.00000000E+00  0.00000000E+00  0.00000000E+00
  0.00000000E+00  0.00000000E+00  0.00000000E+00
  0.00000000E+00  0.00000000E+00  0.00000000E+00
  0.00000000E+00  0.00000000E+00  0.00000000E+00
  0.00000000E+00  0.00000000E+00  0.00000000E+00
  0.00000000E+00  0.00000000E+00  0.00000000E+00
  0.00000000E+00  0.00000000E+00  0.00000000E+00
  0.00000000E+00  0.00000000E+00  0.00000000E+00
  0.00000000E+00  0.00000000E+00  0.00000000E+00
  0.00000000E+00  0.00000000E+00  0.00000000E+00
  0.00000000E+00  0.00000000E+00  0.00000000E+00
  0.00000000E+00  0.00000000E+00  0.00000000E+00
  0.00000000E+00  0.00000000E+00  0.00000000E+00
  0.00000000E+00  0.00000000E+00  0.00000000E+00
  0.00000000E+00  0.00000000E+00  0.00000000E+00
  0.00000000E+00  0.00000000E+00  0.00000000E+00
  0.00000000E+00  0.00000000E+00  0.00000000E+00
  0.00000000E+00  0.00000000E+00  0.00000000E+00
  0.00000000E+00  0.00000000E+00  0.00000000E+00
  0.00000000E+00  0.00000000E+00  0.00000000E+00
  0.00000000E+00  0.00000000E+00  0.00000000E+00
  0.00000000E+00  0.00000000E+00  0.00000000E+00
  0.00000000E+00  0.00000000E+00  0.00000000E+00
  0.00000000E+00  0.00000000E+00  0.00000000E+00
  0.00000000E+00  0.00000000E+00  0.00000000E+00
  0.00000000E+00  0.00000000E+00  0.00000000E+00
  0.00000000E+00  0.00000000E+00  0.00000000E+00
  0.00000000E+00  0.00000000E+00  0.00000000E+00
  0.00000000E+00  0.00000000E+00  0.00000000E+00
  0.00000000E+00  0.00000000E+00  0.00000000E+00
  0.00000000E+00  0.00000000E+00  0.00000000E+00
  0.00000000E+00  0.00000000E+00  0.00000000E+00
  0.00000000E+00  0.00000000E+00  0.00000000E+00
  0.00000000E+00  0.00000000E+00  0.00000000E+00
  0.00000000E+00  0.00000000E+00  0.00000000E+00
  0.00000000E+00  0.00000000E+00  0.00000000E+00
  0.00000000E+00  0.00000000E+00  0.00000000E+00
  0.00000000E+00  0.00000000E+00  0.00000000E+00
  0.00000000E+00  0.00000000E+00  0.00000000E+00
  0.00000000E+00  0.00000000E+00  0.00000000E+00
  0.00000000E+00  0.00000000E+00  0.00000000E+00
  0.00000000E+00  0.00000000E+00  0.00000000E+00
  0.00000000E+00  0.00000000E+00  0.00000000E+00
  0.00000000E+00  0.00000000E+00  0.00000000E+00
  0.00000000E+00  0.00000000E+00  0.00000000E+00
  0.00000000E+00  0.00000000E+00  0.00000000E+00
  0.00000000E+00  0.00000000E+00  0.00000000E+00
  0.00000000E+00  0.00000000E+00  0.00000000E+00
  0.00000000E+00  0.00000000E+00  0.00000000E+00
  0.00000000E+00  0.00000000E+00  0.00000000E+00
  0.00000000E+00  0.00000000E+00  0.00000000E+00
  0.00000000E+00  0.00000000E+00  0.00000000E+00
  0.00000000E+00  0.00000000E+00  0.00000000E+00
