Si6 N8                                  
   1.00000000000000     
     4.0208381123191401   -6.9642958874738259    0.0000000000000000
     4.0208381018642552    6.9642958935099575    0.0000000000000000
     0.0000000000000000    0.0000000000000000    2.8284994298147512
   Si   N 
     6     8
Direct
  0.1975248841638992  0.8314160847544824  0.7500000000000000
  0.3661087994094169  0.1975248841638992  0.2500000000000000
  0.8314160847544824  0.6338912005905831  0.2500000000000000
  0.1685839152455176  0.3661087994094169  0.7500000000000000
  0.6338912005905831  0.8024751158361008  0.7500000000000000
  0.8024751158361008  0.1685839152455176  0.2500000000000000
  0.3333333333333357  0.6666666666666643  0.7500000000000000
  0.6666666666666643  0.3333333333333357  0.2500000000000000
  0.9633959248836464  0.6131651720880910  0.7500000000000000
  0.3502307527955554  0.9633959248836464  0.2500000000000000
  0.6131651720880910  0.6497692472044446  0.2500000000000000
  0.3868348279119090  0.3502307527955554  0.7500000000000000
  0.0366040751163536  0.3868348279119090  0.2500000000000000
  0.6497692472044446  0.0366040751163536  0.7500000000000000
 
  0.00000000E+00  0.00000000E+00  0.00000000E+00
  0.00000000E+00  0.00000000E+00  0.00000000E+00
  0.00000000E+00  0.00000000E+00  0.00000000E+00
  0.00000000E+00  0.00000000E+00  0.00000000E+00
  0.00000000E+00  0.00000000E+00  0.00000000E+00
  0.00000000E+00  0.00000000E+00  0.00000000E+00
  0.00000000E+00  0.00000000E+00  0.00000000E+00
  0.00000000E+00  0.00000000E+00  0.00000000E+00
  0.00000000E+00  0.00000000E+00  0.00000000E+00
  0.00000000E+00  0.00000000E+00  0.00000000E+00
  0.00000000E+00  0.00000000E+00  0.00000000E+00
  0.00000000E+00  0.00000000E+00  0.00000000E+00
  0.00000000E+00  0.00000000E+00  0.00000000E+00
  0.00000000E+00  0.00000000E+00  0.00000000E+00
