Si6 N8                                  
   1.00000000000000     
     4.0606483906589341   -7.0332493121022797    0.0000000000000000
     4.0606483801005346    7.0332493181981750    0.0000000000000000
     0.0000000000000000    0.0000000000000000    2.8565043746644023
   Si   N 
     6     8
Direct
  0.1979883417258664  0.8313022601570136  0.7500000000000000
  0.3666860815688528  0.1979883417258664  0.2500000000000000
  0.8313022601570136  0.6333139184311471  0.2500000000000000
  0.1686977398429864  0.3666860815688528  0.7500000000000000
  0.6333139184311471  0.8020116582741336  0.7500000000000000
  0.8020116582741336  0.1686977398429864  0.2500000000000000
  0.3333333333333357  0.6666666666666643  0.7500000000000000
  0.6666666666666643  0.3333333333333357  0.2500000000000000
  0.9632443265530098  0.6138209212602340  0.7500000000000000
  0.3494234052927757  0.9632443265530098  0.2500000000000000
  0.6138209212602340  0.6505765947072243  0.2500000000000000
  0.3861790787397659  0.3494234052927757  0.7500000000000000
  0.0367556734469902  0.3861790787397659  0.2500000000000000
  0.6505765947072243  0.0367556734469902  0.7500000000000000
 
  0.00000000E+00  0.00000000E+00  0.00000000E+00
  0.00000000E+00  0.00000000E+00  0.00000000E+00
  0.00000000E+00  0.00000000E+00  0.00000000E+00
  0.00000000E+00  0.00000000E+00  0.00000000E+00
  0.00000000E+00  0.00000000E+00  0.00000000E+00
  0.00000000E+00  0.00000000E+00  0.00000000E+00
  0.00000000E+00  0.00000000E+00  0.00000000E+00
  0.00000000E+00  0.00000000E+00  0.00000000E+00
  0.00000000E+00  0.00000000E+00  0.00000000E+00
  0.00000000E+00  0.00000000E+00  0.00000000E+00
  0.00000000E+00  0.00000000E+00  0.00000000E+00
  0.00000000E+00  0.00000000E+00  0.00000000E+00
  0.00000000E+00  0.00000000E+00  0.00000000E+00
  0.00000000E+00  0.00000000E+00  0.00000000E+00
