ALGO = Fast
PREC = Accurate
IBRION = 2
ISIF = 3 
LCHARG = .FALSE.
LWAVE = .FALSE.
LREAL = Auto
ISMEAR = 2
SIGMA = 0.1
NPAR = 4
NSW = 100
NCORE = 2
