Si6 N8
1.0
   3.8022722178664434   -6.5857286655522795    0.0000000000000000
   3.8022722178664434    6.5857286655522795    0.0000000000000000
   0.0000000000000000    0.0000000000000000    2.9051990800000000
Si N
6 8
direct
   0.2310824299999998    0.8249461499999998    0.7500000000000000 Si4+
   0.4061362800000000    0.2310824299999998    0.2500000000000000 Si4+
   0.8249461499999998    0.5938637200000000    0.2500000000000000 Si4+
   0.1750538500000002    0.4061362800000000    0.7500000000000000 Si4+
   0.5938637200000000    0.7689175700000002    0.7500000000000000 Si4+
   0.7689175700000002    0.1750538500000002    0.2500000000000000 Si4+
   0.3333333333333333    0.6666666666666666    0.7500000000000000 N3-
   0.6666666666666667    0.3333333333333334    0.2500000000000000 N3-
   0.9691944899999999    0.6698533999999998    0.7500000000000000 N3-
   0.2993410900000001    0.9691944899999999    0.2500000000000000 N3-
   0.6698533999999998    0.7006589099999999    0.2500000000000000 N3-
   0.3301466000000002    0.2993410900000001    0.7500000000000000 N3-
   0.0308055100000001    0.3301466000000002    0.2500000000000000 N3-
   0.7006589099999999    0.0308055100000001    0.7500000000000000 N3-
