Si6 N8                                  
   1.00000000000000     
     3.9412175556395534   -6.8263890382169183    0.0000000000000000
     3.9412175453916953    6.8263890441335224    0.0000000000000000
     0.0000000000000000    0.0000000000000000    2.7724895401154490
   Si   N 
     6     8
Direct
  0.1965721419481629  0.8314566916223538  0.7500000000000000
  0.3651154503258091  0.1965721419481629  0.2500000000000000
  0.8314566916223538  0.6348845496741909  0.2500000000000000
  0.1685433083776463  0.3651154503258091  0.7500000000000000
  0.6348845496741909  0.8034278580518371  0.7500000000000000
  0.8034278580518371  0.1685433083776463  0.2500000000000000
  0.3333333333333357  0.6666666666666643  0.7500000000000000
  0.6666666666666643  0.3333333333333357  0.2500000000000000
  0.9636847950382903  0.6119899828017734  0.7500000000000000
  0.3516948122365168  0.9636847950382903  0.2500000000000000
  0.6119899828017734  0.6483051877634832  0.2500000000000000
  0.3880100171982266  0.3516948122365168  0.7500000000000000
  0.0363152049617097  0.3880100171982266  0.2500000000000000
  0.6483051877634832  0.0363152049617097  0.7500000000000000
 
  0.00000000E+00  0.00000000E+00  0.00000000E+00
  0.00000000E+00  0.00000000E+00  0.00000000E+00
  0.00000000E+00  0.00000000E+00  0.00000000E+00
  0.00000000E+00  0.00000000E+00  0.00000000E+00
  0.00000000E+00  0.00000000E+00  0.00000000E+00
  0.00000000E+00  0.00000000E+00  0.00000000E+00
  0.00000000E+00  0.00000000E+00  0.00000000E+00
  0.00000000E+00  0.00000000E+00  0.00000000E+00
  0.00000000E+00  0.00000000E+00  0.00000000E+00
  0.00000000E+00  0.00000000E+00  0.00000000E+00
  0.00000000E+00  0.00000000E+00  0.00000000E+00
  0.00000000E+00  0.00000000E+00  0.00000000E+00
  0.00000000E+00  0.00000000E+00  0.00000000E+00
  0.00000000E+00  0.00000000E+00  0.00000000E+00
