Si6 N8                                  
   1.00000000000000     
     3.8615969989599663   -6.6884821889600108    0.0000000000000000
     3.8615969889191359    6.6884821947570874    0.0000000000000000
     0.0000000000000000    0.0000000000000000    2.7164796504161473
   Si   N 
     6     8
Direct
  0.1942446179099193  0.8321871704459256  0.7500000000000000
  0.3620574474639938  0.1942446179099193  0.2500000000000000
  0.8321871704459256  0.6379425525360062  0.2500000000000000
  0.1678128295540745  0.3620574474639938  0.7500000000000000
  0.6379425525360062  0.8057553820900806  0.7500000000000000
  0.8057553820900806  0.1678128295540745  0.2500000000000000
  0.3333333333333357  0.6666666666666643  0.7500000000000000
  0.6666666666666643  0.3333333333333357  0.2500000000000000
  0.9625023190406700  0.6110379802630566  0.7500000000000000
  0.3514643387776135  0.9625023190406700  0.2500000000000000
  0.6110379802630566  0.6485356612223865  0.2500000000000000
  0.3889620197369434  0.3514643387776135  0.7500000000000000
  0.0374976809593299  0.3889620197369434  0.2500000000000000
  0.6485356612223865  0.0374976809593299  0.7500000000000000
 
  0.00000000E+00  0.00000000E+00  0.00000000E+00
  0.00000000E+00  0.00000000E+00  0.00000000E+00
  0.00000000E+00  0.00000000E+00  0.00000000E+00
  0.00000000E+00  0.00000000E+00  0.00000000E+00
  0.00000000E+00  0.00000000E+00  0.00000000E+00
  0.00000000E+00  0.00000000E+00  0.00000000E+00
  0.00000000E+00  0.00000000E+00  0.00000000E+00
  0.00000000E+00  0.00000000E+00  0.00000000E+00
  0.00000000E+00  0.00000000E+00  0.00000000E+00
  0.00000000E+00  0.00000000E+00  0.00000000E+00
  0.00000000E+00  0.00000000E+00  0.00000000E+00
  0.00000000E+00  0.00000000E+00  0.00000000E+00
  0.00000000E+00  0.00000000E+00  0.00000000E+00
  0.00000000E+00  0.00000000E+00  0.00000000E+00
