Si24 N32                                
   1.00000000000000     
     8.0701092122456384    0.0000000000000001    0.0000000000000006
     0.0000000000000014    8.0701092122456384    0.0000000000000006
     0.0000000000000000    0.0000000000000000    8.0701092122456384
   Si   N 
    24    32
Direct
  0.8750000000000000  0.8750000000000000  0.1250000000000000
  0.3750000000000000  0.1250000000000000  0.3750000000000000
  0.6250000000000000  0.8750000000000000  0.3750000000000000
  0.1250000000000000  0.1250000000000000  0.1250000000000000
  0.2500000000000000  0.7500000000000000  0.2500000000000000
 -0.0000000000000000 -0.0000000000000000  0.5000000000000000
  0.8750000000000000  0.3750000000000000  0.6250000000000000
  0.3750000000000000  0.6250000000000000  0.8750000000000000
  0.6250000000000000  0.3750000000000000  0.8750000000000000
  0.1250000000000000  0.6250000000000000  0.6250000000000000
  0.2500000000000000  0.2500000000000000  0.7500000000000000
 -0.0000000000000000  0.5000000000000000  0.0000000000000000
  0.3750000000000000  0.8750000000000000  0.6250000000000000
  0.8750000000000000  0.1250000000000000  0.8750000000000000
  0.1250000000000000  0.8750000000000000  0.8750000000000000
  0.6250000000000000  0.1250000000000000  0.6250000000000000
  0.7500000000000000  0.7500000000000000  0.7500000000000000
  0.5000000000000000 -0.0000000000000000  0.0000000000000000
  0.3750000000000000  0.3750000000000000  0.1250000000000000
  0.8750000000000000  0.6250000000000000  0.3750000000000000
  0.1250000000000000  0.3750000000000000  0.3750000000000000
  0.6250000000000000  0.6250000000000000  0.1250000000000000
  0.7500000000000000  0.2500000000000000  0.2500000000000000
  0.5000000000000000  0.5000000000000000  0.5000000000000000
  0.3765985848377152  0.3765985848377152  0.3765985848377152
  0.8734014151622849  0.1265985848377152  0.1265985848377152
  0.6265985848377151  0.1265985848377152  0.3734014151622848
  0.1265985848377152  0.8734014151622849  0.1265985848377152
  0.1234014151622848  0.1234014151622848  0.3765985848377152
  0.1234014151622848  0.3765985848377152  0.1234014151622848
  0.3734014151622848  0.8734014151622849  0.3734014151622848
  0.3765985848377152  0.1234014151622848  0.1234014151622848
  0.3765985848377152  0.8765985848377151  0.8765985848377151
  0.8734014151622849  0.6265985848377151  0.6265985848377151
  0.6265985848377151  0.6265985848377151  0.8734014151622849
  0.1265985848377152  0.3734014151622848  0.6265985848377151
  0.1234014151622848  0.6234014151622849  0.8765985848377151
  0.1234014151622848  0.8765985848377151  0.6234014151622849
  0.3734014151622848  0.3734014151622848  0.8734014151622849
  0.3765985848377152  0.6234014151622849  0.6234014151622849
  0.8765985848377151  0.3765985848377152  0.8765985848377151
  0.3734014151622848  0.1265985848377152  0.6265985848377151
  0.1265985848377152  0.1265985848377152  0.8734014151622849
  0.6265985848377151  0.8734014151622849  0.6265985848377151
  0.6234014151622849  0.1234014151622848  0.8765985848377151
  0.6234014151622849  0.3765985848377152  0.6234014151622849
  0.8734014151622849  0.8734014151622849  0.8734014151622849
  0.8765985848377151  0.1234014151622848  0.6234014151622849
  0.8765985848377151  0.8765985848377151  0.3765985848377152
  0.3734014151622848  0.6265985848377151  0.1265985848377152
  0.1265985848377152  0.6265985848377151  0.3734014151622848
  0.6265985848377151  0.3734014151622848  0.1265985848377152
  0.6234014151622849  0.6234014151622849  0.3765985848377152
  0.6234014151622849  0.8765985848377151  0.1234014151622848
  0.8734014151622849  0.3734014151622848  0.3734014151622848
  0.8765985848377151  0.6234014151622849  0.1234014151622848
 
  0.00000000E+00  0.00000000E+00  0.00000000E+00
  0.00000000E+00  0.00000000E+00  0.00000000E+00
  0.00000000E+00  0.00000000E+00  0.00000000E+00
  0.00000000E+00  0.00000000E+00  0.00000000E+00
  0.00000000E+00  0.00000000E+00  0.00000000E+00
  0.00000000E+00  0.00000000E+00  0.00000000E+00
  0.00000000E+00  0.00000000E+00  0.00000000E+00
  0.00000000E+00  0.00000000E+00  0.00000000E+00
  0.00000000E+00  0.00000000E+00  0.00000000E+00
  0.00000000E+00  0.00000000E+00  0.00000000E+00
  0.00000000E+00  0.00000000E+00  0.00000000E+00
  0.00000000E+00  0.00000000E+00  0.00000000E+00
  0.00000000E+00  0.00000000E+00  0.00000000E+00
  0.00000000E+00  0.00000000E+00  0.00000000E+00
  0.00000000E+00  0.00000000E+00  0.00000000E+00
  0.00000000E+00  0.00000000E+00  0.00000000E+00
  0.00000000E+00  0.00000000E+00  0.00000000E+00
  0.00000000E+00  0.00000000E+00  0.00000000E+00
  0.00000000E+00  0.00000000E+00  0.00000000E+00
  0.00000000E+00  0.00000000E+00  0.00000000E+00
  0.00000000E+00  0.00000000E+00  0.00000000E+00
  0.00000000E+00  0.00000000E+00  0.00000000E+00
  0.00000000E+00  0.00000000E+00  0.00000000E+00
  0.00000000E+00  0.00000000E+00  0.00000000E+00
  0.00000000E+00  0.00000000E+00  0.00000000E+00
  0.00000000E+00  0.00000000E+00  0.00000000E+00
  0.00000000E+00  0.00000000E+00  0.00000000E+00
  0.00000000E+00  0.00000000E+00  0.00000000E+00
  0.00000000E+00  0.00000000E+00  0.00000000E+00
  0.00000000E+00  0.00000000E+00  0.00000000E+00
  0.00000000E+00  0.00000000E+00  0.00000000E+00
  0.00000000E+00  0.00000000E+00  0.00000000E+00
  0.00000000E+00  0.00000000E+00  0.00000000E+00
  0.00000000E+00  0.00000000E+00  0.00000000E+00
  0.00000000E+00  0.00000000E+00  0.00000000E+00
  0.00000000E+00  0.00000000E+00  0.00000000E+00
  0.00000000E+00  0.00000000E+00  0.00000000E+00
  0.00000000E+00  0.00000000E+00  0.00000000E+00
  0.00000000E+00  0.00000000E+00  0.00000000E+00
  0.00000000E+00  0.00000000E+00  0.00000000E+00
  0.00000000E+00  0.00000000E+00  0.00000000E+00
  0.00000000E+00  0.00000000E+00  0.00000000E+00
  0.00000000E+00  0.00000000E+00  0.00000000E+00
  0.00000000E+00  0.00000000E+00  0.00000000E+00
  0.00000000E+00  0.00000000E+00  0.00000000E+00
  0.00000000E+00  0.00000000E+00  0.00000000E+00
  0.00000000E+00  0.00000000E+00  0.00000000E+00
  0.00000000E+00  0.00000000E+00  0.00000000E+00
  0.00000000E+00  0.00000000E+00  0.00000000E+00
  0.00000000E+00  0.00000000E+00  0.00000000E+00
  0.00000000E+00  0.00000000E+00  0.00000000E+00
  0.00000000E+00  0.00000000E+00  0.00000000E+00
  0.00000000E+00  0.00000000E+00  0.00000000E+00
  0.00000000E+00  0.00000000E+00  0.00000000E+00
  0.00000000E+00  0.00000000E+00  0.00000000E+00
  0.00000000E+00  0.00000000E+00  0.00000000E+00
