Si6 N8                                  
   1.00000000000000     
     3.9810278339793470   -6.8953424628453721    0.0000000000000000
     3.9810278236279752    6.8953424688217400    0.0000000000000000
     0.0000000000000000    0.0000000000000000    2.8004944849651001
   Si   N 
     6     8
Direct
  0.1970350138022111  0.8313555183463323  0.7500000000000000
  0.3656794954558789  0.1970350138022111  0.2500000000000000
  0.8313555183463323  0.6343205045441211  0.2500000000000000
  0.1686444816536678  0.3656794954558789  0.7500000000000000
  0.6343205045441211  0.8029649861977889  0.7500000000000000
  0.8029649861977889  0.1686444816536678  0.2500000000000000
  0.3333333333333357  0.6666666666666643  0.7500000000000000
  0.6666666666666643  0.3333333333333357  0.2500000000000000
  0.9635441940279598  0.6125364326548519  0.7500000000000000
  0.3510077613731079  0.9635441940279598  0.2500000000000000
  0.6125364326548519  0.6489922386268921  0.2500000000000000
  0.3874635673451481  0.3510077613731079  0.7500000000000000
  0.0364558059720403  0.3874635673451481  0.2500000000000000
  0.6489922386268921  0.0364558059720403  0.7500000000000000
 
  0.00000000E+00  0.00000000E+00  0.00000000E+00
  0.00000000E+00  0.00000000E+00  0.00000000E+00
  0.00000000E+00  0.00000000E+00  0.00000000E+00
  0.00000000E+00  0.00000000E+00  0.00000000E+00
  0.00000000E+00  0.00000000E+00  0.00000000E+00
  0.00000000E+00  0.00000000E+00  0.00000000E+00
  0.00000000E+00  0.00000000E+00  0.00000000E+00
  0.00000000E+00  0.00000000E+00  0.00000000E+00
  0.00000000E+00  0.00000000E+00  0.00000000E+00
  0.00000000E+00  0.00000000E+00  0.00000000E+00
  0.00000000E+00  0.00000000E+00  0.00000000E+00
  0.00000000E+00  0.00000000E+00  0.00000000E+00
  0.00000000E+00  0.00000000E+00  0.00000000E+00
  0.00000000E+00  0.00000000E+00  0.00000000E+00
