Si24 N32                                
   1.00000000000000     
     8.8346458744583849    0.0000000000000001    0.0000000000000006
     0.0000000000000016    8.8346458744583849    0.0000000000000006
     0.0000000000000000    0.0000000000000000    8.8346458744583849
   Si   N 
    24    32
Direct
  0.8750000000000000  0.8750000000000000  0.1250000000000000
  0.3750000000000000  0.1250000000000000  0.3750000000000000
  0.6250000000000000  0.8750000000000000  0.3750000000000000
  0.1250000000000000  0.1250000000000000  0.1250000000000000
  0.2500000000000000  0.7500000000000000  0.2500000000000000
 -0.0000000000000000 -0.0000000000000000  0.5000000000000000
  0.8750000000000000  0.3750000000000000  0.6250000000000000
  0.3750000000000000  0.6250000000000000  0.8750000000000000
  0.6250000000000000  0.3750000000000000  0.8750000000000000
  0.1250000000000000  0.6250000000000000  0.6250000000000000
  0.2500000000000000  0.2500000000000000  0.7500000000000000
 -0.0000000000000000  0.5000000000000000 -0.0000000000000000
  0.3750000000000000  0.8750000000000000  0.6250000000000000
  0.8750000000000000  0.1250000000000000  0.8750000000000000
  0.1250000000000000  0.8750000000000000  0.8750000000000000
  0.6250000000000000  0.1250000000000000  0.6250000000000000
  0.7500000000000000  0.7500000000000000  0.7500000000000000
  0.5000000000000000 -0.0000000000000000 -0.0000000000000000
  0.3750000000000000  0.3750000000000000  0.1250000000000000
  0.8750000000000000  0.6250000000000000  0.3750000000000000
  0.1250000000000000  0.3750000000000000  0.3750000000000000
  0.6250000000000000  0.6250000000000000  0.1250000000000000
  0.7500000000000000  0.2500000000000000  0.2500000000000000
  0.5000000000000000  0.5000000000000000  0.5000000000000000
  0.3758405799882401  0.3758405799882401  0.3758405799882401
  0.8741594200117598  0.1258405799882401  0.1258405799882401
  0.6258405799882402  0.1258405799882401  0.3741594200117599
  0.1258405799882401  0.8741594200117598  0.1258405799882401
  0.1241594200117599  0.1241594200117599  0.3758405799882401
  0.1241594200117599  0.3758405799882401  0.1241594200117599
  0.3741594200117599  0.8741594200117598  0.3741594200117599
  0.3758405799882401  0.1241594200117599  0.1241594200117599
  0.3758405799882401  0.8758405799882402  0.8758405799882402
  0.8741594200117598  0.6258405799882402  0.6258405799882402
  0.6258405799882402  0.6258405799882402  0.8741594200117598
  0.1258405799882401  0.3741594200117599  0.6258405799882402
  0.1241594200117599  0.6241594200117598  0.8758405799882402
  0.1241594200117599  0.8758405799882402  0.6241594200117598
  0.3741594200117599  0.3741594200117599  0.8741594200117598
  0.3758405799882401  0.6241594200117598  0.6241594200117598
  0.8758405799882402  0.3758405799882401  0.8758405799882402
  0.3741594200117599  0.1258405799882401  0.6258405799882402
  0.1258405799882401  0.1258405799882401  0.8741594200117598
  0.6258405799882402  0.8741594200117598  0.6258405799882402
  0.6241594200117598  0.1241594200117599  0.8758405799882402
  0.6241594200117598  0.3758405799882401  0.6241594200117598
  0.8741594200117598  0.8741594200117598  0.8741594200117598
  0.8758405799882402  0.1241594200117599  0.6241594200117598
  0.8758405799882402  0.8758405799882402  0.3758405799882401
  0.3741594200117599  0.6258405799882402  0.1258405799882401
  0.1258405799882401  0.6258405799882402  0.3741594200117599
  0.6258405799882402  0.3741594200117599  0.1258405799882401
  0.6241594200117598  0.6241594200117598  0.3758405799882401
  0.6241594200117598  0.8758405799882402  0.1241594200117599
  0.8741594200117598  0.3741594200117599  0.3741594200117599
  0.8758405799882402  0.6241594200117598  0.1241594200117599
 
  0.00000000E+00  0.00000000E+00  0.00000000E+00
  0.00000000E+00  0.00000000E+00  0.00000000E+00
  0.00000000E+00  0.00000000E+00  0.00000000E+00
  0.00000000E+00  0.00000000E+00  0.00000000E+00
  0.00000000E+00  0.00000000E+00  0.00000000E+00
  0.00000000E+00  0.00000000E+00  0.00000000E+00
  0.00000000E+00  0.00000000E+00  0.00000000E+00
  0.00000000E+00  0.00000000E+00  0.00000000E+00
  0.00000000E+00  0.00000000E+00  0.00000000E+00
  0.00000000E+00  0.00000000E+00  0.00000000E+00
  0.00000000E+00  0.00000000E+00  0.00000000E+00
  0.00000000E+00  0.00000000E+00  0.00000000E+00
  0.00000000E+00  0.00000000E+00  0.00000000E+00
  0.00000000E+00  0.00000000E+00  0.00000000E+00
  0.00000000E+00  0.00000000E+00  0.00000000E+00
  0.00000000E+00  0.00000000E+00  0.00000000E+00
  0.00000000E+00  0.00000000E+00  0.00000000E+00
  0.00000000E+00  0.00000000E+00  0.00000000E+00
  0.00000000E+00  0.00000000E+00  0.00000000E+00
  0.00000000E+00  0.00000000E+00  0.00000000E+00
  0.00000000E+00  0.00000000E+00  0.00000000E+00
  0.00000000E+00  0.00000000E+00  0.00000000E+00
  0.00000000E+00  0.00000000E+00  0.00000000E+00
  0.00000000E+00  0.00000000E+00  0.00000000E+00
  0.00000000E+00  0.00000000E+00  0.00000000E+00
  0.00000000E+00  0.00000000E+00  0.00000000E+00
  0.00000000E+00  0.00000000E+00  0.00000000E+00
  0.00000000E+00  0.00000000E+00  0.00000000E+00
  0.00000000E+00  0.00000000E+00  0.00000000E+00
  0.00000000E+00  0.00000000E+00  0.00000000E+00
  0.00000000E+00  0.00000000E+00  0.00000000E+00
  0.00000000E+00  0.00000000E+00  0.00000000E+00
  0.00000000E+00  0.00000000E+00  0.00000000E+00
  0.00000000E+00  0.00000000E+00  0.00000000E+00
  0.00000000E+00  0.00000000E+00  0.00000000E+00
  0.00000000E+00  0.00000000E+00  0.00000000E+00
  0.00000000E+00  0.00000000E+00  0.00000000E+00
  0.00000000E+00  0.00000000E+00  0.00000000E+00
  0.00000000E+00  0.00000000E+00  0.00000000E+00
  0.00000000E+00  0.00000000E+00  0.00000000E+00
  0.00000000E+00  0.00000000E+00  0.00000000E+00
  0.00000000E+00  0.00000000E+00  0.00000000E+00
  0.00000000E+00  0.00000000E+00  0.00000000E+00
  0.00000000E+00  0.00000000E+00  0.00000000E+00
  0.00000000E+00  0.00000000E+00  0.00000000E+00
  0.00000000E+00  0.00000000E+00  0.00000000E+00
  0.00000000E+00  0.00000000E+00  0.00000000E+00
  0.00000000E+00  0.00000000E+00  0.00000000E+00
  0.00000000E+00  0.00000000E+00  0.00000000E+00
  0.00000000E+00  0.00000000E+00  0.00000000E+00
  0.00000000E+00  0.00000000E+00  0.00000000E+00
  0.00000000E+00  0.00000000E+00  0.00000000E+00
  0.00000000E+00  0.00000000E+00  0.00000000E+00
  0.00000000E+00  0.00000000E+00  0.00000000E+00
  0.00000000E+00  0.00000000E+00  0.00000000E+00
  0.00000000E+00  0.00000000E+00  0.00000000E+00
