Si24 N32                                
   1.00000000000000     
     8.2400062482929162    0.0000000000000001    0.0000000000000006
     0.0000000000000015    8.2400062482929162    0.0000000000000006
     0.0000000000000000    0.0000000000000000    8.2400062482929162
   Si   N 
    24    32
Direct
  0.8750000000000000  0.8750000000000000  0.1250000000000000
  0.3750000000000000  0.1250000000000000  0.3750000000000000
  0.6250000000000000  0.8750000000000000  0.3750000000000000
  0.1250000000000000  0.1250000000000000  0.1250000000000000
  0.2500000000000000  0.7500000000000000  0.2500000000000000
 -0.0000000000000000  0.0000000000000000  0.5000000000000000
  0.8750000000000000  0.3750000000000000  0.6250000000000000
  0.3750000000000000  0.6250000000000000  0.8750000000000000
  0.6250000000000000  0.3750000000000000  0.8750000000000000
  0.1250000000000000  0.6250000000000000  0.6250000000000000
  0.2500000000000000  0.2500000000000000  0.7500000000000000
 -0.0000000000000000  0.5000000000000000  0.0000000000000000
  0.3750000000000000  0.8750000000000000  0.6250000000000000
  0.8750000000000000  0.1250000000000000  0.8750000000000000
  0.1250000000000000  0.8750000000000000  0.8750000000000000
  0.6250000000000000  0.1250000000000000  0.6250000000000000
  0.7500000000000000  0.7500000000000000  0.7500000000000000
  0.5000000000000000  0.0000000000000000 -0.0000000000000000
  0.3750000000000000  0.3750000000000000  0.1250000000000000
  0.8750000000000000  0.6250000000000000  0.3750000000000000
  0.1250000000000000  0.3750000000000000  0.3750000000000000
  0.6250000000000000  0.6250000000000000  0.1250000000000000
  0.7500000000000000  0.2500000000000000  0.2500000000000000
  0.5000000000000000  0.5000000000000000  0.5000000000000000
  0.3765120971332287  0.3765120971332287  0.3765120971332287
  0.8734879028667714  0.1265120971332287  0.1265120971332287
  0.6265120971332286  0.1265120971332287  0.3734879028667713
  0.1265120971332287  0.8734879028667714  0.1265120971332287
  0.1234879028667713  0.1234879028667713  0.3765120971332287
  0.1234879028667713  0.3765120971332287  0.1234879028667713
  0.3734879028667713  0.8734879028667714  0.3734879028667713
  0.3765120971332287  0.1234879028667713  0.1234879028667713
  0.3765120971332287  0.8765120971332286  0.8765120971332286
  0.8734879028667714  0.6265120971332286  0.6265120971332286
  0.6265120971332286  0.6265120971332286  0.8734879028667714
  0.1265120971332287  0.3734879028667713  0.6265120971332286
  0.1234879028667713  0.6234879028667714  0.8765120971332286
  0.1234879028667713  0.8765120971332286  0.6234879028667714
  0.3734879028667713  0.3734879028667713  0.8734879028667714
  0.3765120971332287  0.6234879028667714  0.6234879028667714
  0.8765120971332286  0.3765120971332287  0.8765120971332286
  0.3734879028667713  0.1265120971332287  0.6265120971332286
  0.1265120971332287  0.1265120971332287  0.8734879028667714
  0.6265120971332286  0.8734879028667714  0.6265120971332286
  0.6234879028667714  0.1234879028667713  0.8765120971332286
  0.6234879028667714  0.3765120971332287  0.6234879028667714
  0.8734879028667714  0.8734879028667714  0.8734879028667714
  0.8765120971332286  0.1234879028667713  0.6234879028667714
  0.8765120971332286  0.8765120971332286  0.3765120971332287
  0.3734879028667713  0.6265120971332286  0.1265120971332287
  0.1265120971332287  0.6265120971332286  0.3734879028667713
  0.6265120971332286  0.3734879028667713  0.1265120971332287
  0.6234879028667714  0.6234879028667714  0.3765120971332287
  0.6234879028667714  0.8765120971332286  0.1234879028667713
  0.8734879028667714  0.3734879028667713  0.3734879028667713
  0.8765120971332286  0.6234879028667714  0.1234879028667713
 
  0.00000000E+00  0.00000000E+00  0.00000000E+00
  0.00000000E+00  0.00000000E+00  0.00000000E+00
  0.00000000E+00  0.00000000E+00  0.00000000E+00
  0.00000000E+00  0.00000000E+00  0.00000000E+00
  0.00000000E+00  0.00000000E+00  0.00000000E+00
  0.00000000E+00  0.00000000E+00  0.00000000E+00
  0.00000000E+00  0.00000000E+00  0.00000000E+00
  0.00000000E+00  0.00000000E+00  0.00000000E+00
  0.00000000E+00  0.00000000E+00  0.00000000E+00
  0.00000000E+00  0.00000000E+00  0.00000000E+00
  0.00000000E+00  0.00000000E+00  0.00000000E+00
  0.00000000E+00  0.00000000E+00  0.00000000E+00
  0.00000000E+00  0.00000000E+00  0.00000000E+00
  0.00000000E+00  0.00000000E+00  0.00000000E+00
  0.00000000E+00  0.00000000E+00  0.00000000E+00
  0.00000000E+00  0.00000000E+00  0.00000000E+00
  0.00000000E+00  0.00000000E+00  0.00000000E+00
  0.00000000E+00  0.00000000E+00  0.00000000E+00
  0.00000000E+00  0.00000000E+00  0.00000000E+00
  0.00000000E+00  0.00000000E+00  0.00000000E+00
  0.00000000E+00  0.00000000E+00  0.00000000E+00
  0.00000000E+00  0.00000000E+00  0.00000000E+00
  0.00000000E+00  0.00000000E+00  0.00000000E+00
  0.00000000E+00  0.00000000E+00  0.00000000E+00
  0.00000000E+00  0.00000000E+00  0.00000000E+00
  0.00000000E+00  0.00000000E+00  0.00000000E+00
  0.00000000E+00  0.00000000E+00  0.00000000E+00
  0.00000000E+00  0.00000000E+00  0.00000000E+00
  0.00000000E+00  0.00000000E+00  0.00000000E+00
  0.00000000E+00  0.00000000E+00  0.00000000E+00
  0.00000000E+00  0.00000000E+00  0.00000000E+00
  0.00000000E+00  0.00000000E+00  0.00000000E+00
  0.00000000E+00  0.00000000E+00  0.00000000E+00
  0.00000000E+00  0.00000000E+00  0.00000000E+00
  0.00000000E+00  0.00000000E+00  0.00000000E+00
  0.00000000E+00  0.00000000E+00  0.00000000E+00
  0.00000000E+00  0.00000000E+00  0.00000000E+00
  0.00000000E+00  0.00000000E+00  0.00000000E+00
  0.00000000E+00  0.00000000E+00  0.00000000E+00
  0.00000000E+00  0.00000000E+00  0.00000000E+00
  0.00000000E+00  0.00000000E+00  0.00000000E+00
  0.00000000E+00  0.00000000E+00  0.00000000E+00
  0.00000000E+00  0.00000000E+00  0.00000000E+00
  0.00000000E+00  0.00000000E+00  0.00000000E+00
  0.00000000E+00  0.00000000E+00  0.00000000E+00
  0.00000000E+00  0.00000000E+00  0.00000000E+00
  0.00000000E+00  0.00000000E+00  0.00000000E+00
  0.00000000E+00  0.00000000E+00  0.00000000E+00
  0.00000000E+00  0.00000000E+00  0.00000000E+00
  0.00000000E+00  0.00000000E+00  0.00000000E+00
  0.00000000E+00  0.00000000E+00  0.00000000E+00
  0.00000000E+00  0.00000000E+00  0.00000000E+00
  0.00000000E+00  0.00000000E+00  0.00000000E+00
  0.00000000E+00  0.00000000E+00  0.00000000E+00
  0.00000000E+00  0.00000000E+00  0.00000000E+00
  0.00000000E+00  0.00000000E+00  0.00000000E+00
