Si12 N16                                
   1.00000000000000     
     4.2715165572676534   -7.3984837025592665    0.0000000000000000
     4.2715165572676534    7.3984837025592665    0.0000000000000000
     0.0000000000000000    0.0000000000000000    5.4739483240274076
   Si   N 
    12    16
Direct
  0.0083946859158764  0.6472403816150780  0.2131583506925218
  0.6388456956992015  0.9916053140841237  0.2131583506925218
  0.9141837609980613  0.3216980349562590  0.9920238340715243
  0.6472403816150780  0.0083946859158764  0.7131583506925218
  0.0858162390019386  0.4075142739581906  0.4920238340715242
  0.3216980349562590  0.9141837609980613  0.4920238340715242
  0.3527596183849221  0.3611543043007985  0.2131583506925218
  0.5924857260418094  0.6783019650437410  0.4920238340715242
  0.9916053140841237  0.6388456956992015  0.7131583506925218
  0.3611543043007985  0.3527596183849221  0.7131583506925218
  0.6783019650437410  0.5924857260418094  0.9920238340715243
  0.4075142739581906  0.0858162390019386  0.9920238340715243
  0.2132615829894173  0.3004321328006743  0.4667343301607245
  0.0871705498112570  0.7867384170105827  0.4667343301607245
  0.3004321328006743  0.2132615829894173  0.9667343301607244
  0.6995678671993257  0.9128294501887431  0.4667343301607245
 -0.0000000000000000 -0.0000000000000000  0.9570015866690539
  0.0668882867089596  0.4844343585970929  0.7825616744147412
 -0.0000000000000000 -0.0000000000000000  0.4570015866690538
  0.6666666666666643  0.3333333333333357  0.4756915253123947
  0.5824539281118666  0.5155656414029071  0.2825616744147412
  0.7867384170105827  0.0871705498112570  0.9667343301607244
  0.9128294501887431  0.6995678671993257  0.9667343301607244
  0.3333333333333357  0.6666666666666643  0.9756915253123947
  0.9331117132910405  0.4175460718881334  0.2825616744147412
  0.4175460718881334  0.9331117132910405  0.7825616744147412
  0.5155656414029071  0.5824539281118666  0.7825616744147412
  0.4844343585970929  0.0668882867089596  0.2825616744147412
 
  0.00000000E+00  0.00000000E+00  0.00000000E+00
  0.00000000E+00  0.00000000E+00  0.00000000E+00
  0.00000000E+00  0.00000000E+00  0.00000000E+00
  0.00000000E+00  0.00000000E+00  0.00000000E+00
  0.00000000E+00  0.00000000E+00  0.00000000E+00
  0.00000000E+00  0.00000000E+00  0.00000000E+00
  0.00000000E+00  0.00000000E+00  0.00000000E+00
  0.00000000E+00  0.00000000E+00  0.00000000E+00
  0.00000000E+00  0.00000000E+00  0.00000000E+00
  0.00000000E+00  0.00000000E+00  0.00000000E+00
  0.00000000E+00  0.00000000E+00  0.00000000E+00
  0.00000000E+00  0.00000000E+00  0.00000000E+00
  0.00000000E+00  0.00000000E+00  0.00000000E+00
  0.00000000E+00  0.00000000E+00  0.00000000E+00
  0.00000000E+00  0.00000000E+00  0.00000000E+00
  0.00000000E+00  0.00000000E+00  0.00000000E+00
  0.00000000E+00  0.00000000E+00  0.00000000E+00
  0.00000000E+00  0.00000000E+00  0.00000000E+00
  0.00000000E+00  0.00000000E+00  0.00000000E+00
  0.00000000E+00  0.00000000E+00  0.00000000E+00
  0.00000000E+00  0.00000000E+00  0.00000000E+00
  0.00000000E+00  0.00000000E+00  0.00000000E+00
  0.00000000E+00  0.00000000E+00  0.00000000E+00
  0.00000000E+00  0.00000000E+00  0.00000000E+00
  0.00000000E+00  0.00000000E+00  0.00000000E+00
  0.00000000E+00  0.00000000E+00  0.00000000E+00
  0.00000000E+00  0.00000000E+00  0.00000000E+00
  0.00000000E+00  0.00000000E+00  0.00000000E+00
