Si24 N32                                
   1.00000000000000     
     8.4948518023638311    0.0000000000000001    0.0000000000000006
     0.0000000000000015    8.4948518023638311    0.0000000000000006
     0.0000000000000000    0.0000000000000000    8.4948518023638311
   Si   N 
    24    32
Direct
  0.8750000000000000  0.8750000000000000  0.1250000000000000
  0.3750000000000000  0.1250000000000000  0.3750000000000000
  0.6250000000000000  0.8750000000000000  0.3750000000000000
  0.1250000000000000  0.1250000000000000  0.1250000000000000
  0.2500000000000000  0.7500000000000000  0.2500000000000000
 -0.0000000000000000 -0.0000000000000000  0.5000000000000000
  0.8750000000000000  0.3750000000000000  0.6250000000000000
  0.3750000000000000  0.6250000000000000  0.8750000000000000
  0.6250000000000000  0.3750000000000000  0.8750000000000000
  0.1250000000000000  0.6250000000000000  0.6250000000000000
  0.2500000000000000  0.2500000000000000  0.7500000000000000
 -0.0000000000000000  0.5000000000000000  0.0000000000000000
  0.3750000000000000  0.8750000000000000  0.6250000000000000
  0.8750000000000000  0.1250000000000000  0.8750000000000000
  0.1250000000000000  0.8750000000000000  0.8750000000000000
  0.6250000000000000  0.1250000000000000  0.6250000000000000
  0.7500000000000000  0.7500000000000000  0.7500000000000000
  0.5000000000000000 -0.0000000000000000  0.0000000000000000
  0.3750000000000000  0.3750000000000000  0.1250000000000000
  0.8750000000000000  0.6250000000000000  0.3750000000000000
  0.1250000000000000  0.3750000000000000  0.3750000000000000
  0.6250000000000000  0.6250000000000000  0.1250000000000000
  0.7500000000000000  0.2500000000000000  0.2500000000000000
  0.5000000000000000  0.5000000000000000  0.5000000000000000
  0.3762589610322270  0.3762589610322270  0.3762589610322270
  0.8737410389677730  0.1262589610322270  0.1262589610322270
  0.6262589610322270  0.1262589610322270  0.3737410389677730
  0.1262589610322270  0.8737410389677730  0.1262589610322270
  0.1237410389677730  0.1237410389677730  0.3762589610322270
  0.1237410389677730  0.3762589610322270  0.1237410389677730
  0.3737410389677730  0.8737410389677730  0.3737410389677730
  0.3762589610322270  0.1237410389677730  0.1237410389677730
  0.3762589610322270  0.8762589610322270  0.8762589610322270
  0.8737410389677730  0.6262589610322270  0.6262589610322270
  0.6262589610322270  0.6262589610322270  0.8737410389677730
  0.1262589610322270  0.3737410389677730  0.6262589610322270
  0.1237410389677730  0.6237410389677730  0.8762589610322270
  0.1237410389677730  0.8762589610322270  0.6237410389677730
  0.3737410389677730  0.3737410389677730  0.8737410389677730
  0.3762589610322270  0.6237410389677730  0.6237410389677730
  0.8762589610322270  0.3762589610322270  0.8762589610322270
  0.3737410389677730  0.1262589610322270  0.6262589610322270
  0.1262589610322270  0.1262589610322270  0.8737410389677730
  0.6262589610322270  0.8737410389677730  0.6262589610322270
  0.6237410389677730  0.1237410389677730  0.8762589610322270
  0.6237410389677730  0.3762589610322270  0.6237410389677730
  0.8737410389677730  0.8737410389677730  0.8737410389677730
  0.8762589610322270  0.1237410389677730  0.6237410389677730
  0.8762589610322270  0.8762589610322270  0.3762589610322270
  0.3737410389677730  0.6262589610322270  0.1262589610322270
  0.1262589610322270  0.6262589610322270  0.3737410389677730
  0.6262589610322270  0.3737410389677730  0.1262589610322270
  0.6237410389677730  0.6237410389677730  0.3762589610322270
  0.6237410389677730  0.8762589610322270  0.1237410389677730
  0.8737410389677730  0.3737410389677730  0.3737410389677730
  0.8762589610322270  0.6237410389677730  0.1237410389677730
 
  0.00000000E+00  0.00000000E+00  0.00000000E+00
  0.00000000E+00  0.00000000E+00  0.00000000E+00
  0.00000000E+00  0.00000000E+00  0.00000000E+00
  0.00000000E+00  0.00000000E+00  0.00000000E+00
  0.00000000E+00  0.00000000E+00  0.00000000E+00
  0.00000000E+00  0.00000000E+00  0.00000000E+00
  0.00000000E+00  0.00000000E+00  0.00000000E+00
  0.00000000E+00  0.00000000E+00  0.00000000E+00
  0.00000000E+00  0.00000000E+00  0.00000000E+00
  0.00000000E+00  0.00000000E+00  0.00000000E+00
  0.00000000E+00  0.00000000E+00  0.00000000E+00
  0.00000000E+00  0.00000000E+00  0.00000000E+00
  0.00000000E+00  0.00000000E+00  0.00000000E+00
  0.00000000E+00  0.00000000E+00  0.00000000E+00
  0.00000000E+00  0.00000000E+00  0.00000000E+00
  0.00000000E+00  0.00000000E+00  0.00000000E+00
  0.00000000E+00  0.00000000E+00  0.00000000E+00
  0.00000000E+00  0.00000000E+00  0.00000000E+00
  0.00000000E+00  0.00000000E+00  0.00000000E+00
  0.00000000E+00  0.00000000E+00  0.00000000E+00
  0.00000000E+00  0.00000000E+00  0.00000000E+00
  0.00000000E+00  0.00000000E+00  0.00000000E+00
  0.00000000E+00  0.00000000E+00  0.00000000E+00
  0.00000000E+00  0.00000000E+00  0.00000000E+00
  0.00000000E+00  0.00000000E+00  0.00000000E+00
  0.00000000E+00  0.00000000E+00  0.00000000E+00
  0.00000000E+00  0.00000000E+00  0.00000000E+00
  0.00000000E+00  0.00000000E+00  0.00000000E+00
  0.00000000E+00  0.00000000E+00  0.00000000E+00
  0.00000000E+00  0.00000000E+00  0.00000000E+00
  0.00000000E+00  0.00000000E+00  0.00000000E+00
  0.00000000E+00  0.00000000E+00  0.00000000E+00
  0.00000000E+00  0.00000000E+00  0.00000000E+00
  0.00000000E+00  0.00000000E+00  0.00000000E+00
  0.00000000E+00  0.00000000E+00  0.00000000E+00
  0.00000000E+00  0.00000000E+00  0.00000000E+00
  0.00000000E+00  0.00000000E+00  0.00000000E+00
  0.00000000E+00  0.00000000E+00  0.00000000E+00
  0.00000000E+00  0.00000000E+00  0.00000000E+00
  0.00000000E+00  0.00000000E+00  0.00000000E+00
  0.00000000E+00  0.00000000E+00  0.00000000E+00
  0.00000000E+00  0.00000000E+00  0.00000000E+00
  0.00000000E+00  0.00000000E+00  0.00000000E+00
  0.00000000E+00  0.00000000E+00  0.00000000E+00
  0.00000000E+00  0.00000000E+00  0.00000000E+00
  0.00000000E+00  0.00000000E+00  0.00000000E+00
  0.00000000E+00  0.00000000E+00  0.00000000E+00
  0.00000000E+00  0.00000000E+00  0.00000000E+00
  0.00000000E+00  0.00000000E+00  0.00000000E+00
  0.00000000E+00  0.00000000E+00  0.00000000E+00
  0.00000000E+00  0.00000000E+00  0.00000000E+00
  0.00000000E+00  0.00000000E+00  0.00000000E+00
  0.00000000E+00  0.00000000E+00  0.00000000E+00
  0.00000000E+00  0.00000000E+00  0.00000000E+00
  0.00000000E+00  0.00000000E+00  0.00000000E+00
  0.00000000E+00  0.00000000E+00  0.00000000E+00
