Si12 N16                                
   1.00000000000000     
     4.3569468884130069   -7.5464533766104518    0.0000000000000000
     4.3569468884130069    7.5464533766104518    0.0000000000000000
     0.0000000000000000    0.0000000000000000    5.5834272905079558
   Si   N 
    12    16
Direct
  0.0055118320341751  0.6479885248281729  0.2183702446098272
  0.6424766927939977  0.9944881679658248  0.2183702446098272
  0.9162098874633263  0.3227773160466889  0.9917501228788971
  0.6479885248281729  0.0055118320341751  0.7183702446098272
  0.0837901125366737  0.4065674285833555  0.4917501228788970
  0.3227773160466889  0.9162098874633263  0.4917501228788970
  0.3520114751718272  0.3575233072060023  0.2183702446098272
  0.5934325714166446  0.6772226839533111  0.4917501228788970
  0.9944881679658248  0.6424766927939977  0.7183702446098272
  0.3575233072060023  0.3520114751718272  0.7183702446098272
  0.6772226839533111  0.5934325714166446  0.9917501228788971
  0.4065674285833555  0.0837901125366737  0.9917501228788971
  0.2125878418464407  0.3005110631512710  0.4701793023887220
  0.0879232213048303  0.7874121581535591  0.4701793023887220
  0.3005110631512710  0.2125878418464407  0.9701793023887220
  0.6994889368487289  0.9120767786951697  0.4701793023887220
 -0.0000000000000000 -0.0000000000000000  0.9624386139539725
  0.0632794736505309  0.4835485257650841  0.7790444151768106
 -0.0000000000000000 -0.0000000000000000  0.4624386139539728
  0.6666666666666643  0.3333333333333357  0.4556568108832404
  0.5797309478854470  0.5164514742349161  0.2790444151768106
  0.7874121581535591  0.0879232213048303  0.9701793023887220
  0.9120767786951697  0.6994889368487289  0.9701793023887220
  0.3333333333333357  0.6666666666666643  0.9556568108832406
  0.9367205263494690  0.4202690521145532  0.2790444151768106
  0.4202690521145532  0.9367205263494690  0.7790444151768106
  0.5164514742349161  0.5797309478854470  0.7790444151768106
  0.4835485257650841  0.0632794736505309  0.2790444151768106
 
  0.00000000E+00  0.00000000E+00  0.00000000E+00
  0.00000000E+00  0.00000000E+00  0.00000000E+00
  0.00000000E+00  0.00000000E+00  0.00000000E+00
  0.00000000E+00  0.00000000E+00  0.00000000E+00
  0.00000000E+00  0.00000000E+00  0.00000000E+00
  0.00000000E+00  0.00000000E+00  0.00000000E+00
  0.00000000E+00  0.00000000E+00  0.00000000E+00
  0.00000000E+00  0.00000000E+00  0.00000000E+00
  0.00000000E+00  0.00000000E+00  0.00000000E+00
  0.00000000E+00  0.00000000E+00  0.00000000E+00
  0.00000000E+00  0.00000000E+00  0.00000000E+00
  0.00000000E+00  0.00000000E+00  0.00000000E+00
  0.00000000E+00  0.00000000E+00  0.00000000E+00
  0.00000000E+00  0.00000000E+00  0.00000000E+00
  0.00000000E+00  0.00000000E+00  0.00000000E+00
  0.00000000E+00  0.00000000E+00  0.00000000E+00
  0.00000000E+00  0.00000000E+00  0.00000000E+00
  0.00000000E+00  0.00000000E+00  0.00000000E+00
  0.00000000E+00  0.00000000E+00  0.00000000E+00
  0.00000000E+00  0.00000000E+00  0.00000000E+00
  0.00000000E+00  0.00000000E+00  0.00000000E+00
  0.00000000E+00  0.00000000E+00  0.00000000E+00
  0.00000000E+00  0.00000000E+00  0.00000000E+00
  0.00000000E+00  0.00000000E+00  0.00000000E+00
  0.00000000E+00  0.00000000E+00  0.00000000E+00
  0.00000000E+00  0.00000000E+00  0.00000000E+00
  0.00000000E+00  0.00000000E+00  0.00000000E+00
  0.00000000E+00  0.00000000E+00  0.00000000E+00
