Si6 N8                                  
   1.00000000000000     
     3.9014072772997599   -6.7574356135884646    0.0000000000000000
     3.9014072671554159    6.7574356194453049    0.0000000000000000
     0.0000000000000000    0.0000000000000000    2.7444845952657979
   Si   N 
     6     8
Direct
  0.1951132547187775  0.8317626008635767  0.7500000000000000
  0.3633506538552008  0.1951132547187775  0.2500000000000000
  0.8317626008635767  0.6366493461447991  0.2500000000000000
  0.1682373991364234  0.3633506538552008  0.7500000000000000
  0.6366493461447991  0.8048867452812226  0.7500000000000000
  0.8048867452812226  0.1682373991364234  0.2500000000000000
  0.3333333333333357  0.6666666666666643  0.7500000000000000
  0.6666666666666643  0.3333333333333357  0.2500000000000000
  0.9626945306429233  0.6113933971801744  0.7500000000000000
  0.3513011334627490  0.9626945306429233  0.2500000000000000
  0.6113933971801744  0.6486988665372512  0.2500000000000000
  0.3886066028198256  0.3513011334627490  0.7500000000000000
  0.0373054693570766  0.3886066028198256  0.2500000000000000
  0.6486988665372512  0.0373054693570766  0.7500000000000000
 
  0.00000000E+00  0.00000000E+00  0.00000000E+00
  0.00000000E+00  0.00000000E+00  0.00000000E+00
  0.00000000E+00  0.00000000E+00  0.00000000E+00
  0.00000000E+00  0.00000000E+00  0.00000000E+00
  0.00000000E+00  0.00000000E+00  0.00000000E+00
  0.00000000E+00  0.00000000E+00  0.00000000E+00
  0.00000000E+00  0.00000000E+00  0.00000000E+00
  0.00000000E+00  0.00000000E+00  0.00000000E+00
  0.00000000E+00  0.00000000E+00  0.00000000E+00
  0.00000000E+00  0.00000000E+00  0.00000000E+00
  0.00000000E+00  0.00000000E+00  0.00000000E+00
  0.00000000E+00  0.00000000E+00  0.00000000E+00
  0.00000000E+00  0.00000000E+00  0.00000000E+00
  0.00000000E+00  0.00000000E+00  0.00000000E+00
