Si12 N16                                
   1.00000000000000     
     4.3996620539856828   -7.6204382136360449    0.0000000000000000
     4.3996620539856828    7.6204382136360449    0.0000000000000000
     0.0000000000000000    0.0000000000000000    5.6381667737482299
   Si   N 
    12    16
Direct
  0.0049038179297601  0.6483365440163084  0.2203838150041135
  0.6434327260865483  0.9950961820702396  0.2203838150041135
  0.9173165946221792  0.3233914766285587  0.9918221181284426
  0.6483365440163084  0.0049038179297601  0.7203838150041135
  0.0826834053778211  0.4060748820063727  0.4918221181284428
  0.3233914766285587  0.9173165946221792  0.4918221181284428
  0.3516634559836918  0.3565672739134519  0.2203838150041135
  0.5939251179936273  0.6766085233714415  0.4918221181284428
  0.9950961820702396  0.6434327260865483  0.7203838150041135
  0.3565672739134519  0.3516634559836918  0.7203838150041135
  0.6766085233714415  0.5939251179936273  0.9918221181284426
  0.4060748820063727  0.0826834053778211  0.9918221181284426
  0.2124619683280520  0.3006267848038270  0.4718265574425036
  0.0881648164757750  0.7875380316719478  0.4718265574425036
  0.3006267848038270  0.2124619683280520  0.9718265574425035
  0.6993732151961731  0.9118351835242249  0.4718265574425036
 -0.0000000000000000 -0.0000000000000000  0.9660800602894506
  0.0619142252859867  0.4835526124633776  0.7774772697311367
 -0.0000000000000000 -0.0000000000000000  0.4660800602894506
  0.6666666666666643  0.3333333333333357  0.4455183387919439
  0.5783616128226091  0.5164473875366222  0.2774772697311365
  0.7875380316719478  0.0881648164757750  0.9718265574425035
  0.9118351835242249  0.6993732151961731  0.9718265574425035
  0.3333333333333357  0.6666666666666643  0.9455183387919438
  0.9380857747140133  0.4216383871773909  0.2774772697311365
  0.4216383871773909  0.9380857747140133  0.7774772697311367
  0.5164473875366222  0.5783616128226091  0.7774772697311367
  0.4835526124633776  0.0619142252859867  0.2774772697311365
 
  0.00000000E+00  0.00000000E+00  0.00000000E+00
  0.00000000E+00  0.00000000E+00  0.00000000E+00
  0.00000000E+00  0.00000000E+00  0.00000000E+00
  0.00000000E+00  0.00000000E+00  0.00000000E+00
  0.00000000E+00  0.00000000E+00  0.00000000E+00
  0.00000000E+00  0.00000000E+00  0.00000000E+00
  0.00000000E+00  0.00000000E+00  0.00000000E+00
  0.00000000E+00  0.00000000E+00  0.00000000E+00
  0.00000000E+00  0.00000000E+00  0.00000000E+00
  0.00000000E+00  0.00000000E+00  0.00000000E+00
  0.00000000E+00  0.00000000E+00  0.00000000E+00
  0.00000000E+00  0.00000000E+00  0.00000000E+00
  0.00000000E+00  0.00000000E+00  0.00000000E+00
  0.00000000E+00  0.00000000E+00  0.00000000E+00
  0.00000000E+00  0.00000000E+00  0.00000000E+00
  0.00000000E+00  0.00000000E+00  0.00000000E+00
  0.00000000E+00  0.00000000E+00  0.00000000E+00
  0.00000000E+00  0.00000000E+00  0.00000000E+00
  0.00000000E+00  0.00000000E+00  0.00000000E+00
  0.00000000E+00  0.00000000E+00  0.00000000E+00
  0.00000000E+00  0.00000000E+00  0.00000000E+00
  0.00000000E+00  0.00000000E+00  0.00000000E+00
  0.00000000E+00  0.00000000E+00  0.00000000E+00
  0.00000000E+00  0.00000000E+00  0.00000000E+00
  0.00000000E+00  0.00000000E+00  0.00000000E+00
  0.00000000E+00  0.00000000E+00  0.00000000E+00
  0.00000000E+00  0.00000000E+00  0.00000000E+00
  0.00000000E+00  0.00000000E+00  0.00000000E+00
